15
attempt 1 | |g_proj| = 1.432e-03 | E = -3010.3322167935 Ha
C     -0.9332424776     2.0202561826     0.7662818337
C      0.4647988221     1.9570188231     0.6674806642
C      1.1400698734     0.7311977424     0.6661236199
C      0.4817452134    -0.4437662707     0.7258170141
C     -1.6331315865     0.8614869973     0.8027851450
H     -1.4210110966     2.9817932543     0.8035676753
H      1.0512654267     2.8665856750     0.6007951432
H      1.0185879919    -1.3832321895     0.7111198987
H     -2.7095425407     0.8720725622     0.8664859276
N      2.6220064016     0.7218217306     0.6112350231
O      3.1339454427    -0.3639430887     0.5946174137
O      3.1497406215     1.8002775023     0.5684252538
C     -0.9835510001    -0.4546337727     0.7065480064
H     -1.3980065735    -1.1585915212     1.4298358795
Br    -1.3755078056    -1.2067447134    -1.0496608732
