15
attempt 1 | |g_proj| = 1.180e-03 | E = -3010.3526421459 Ha
C     -0.4782280661     1.2343331027     0.5928139312
C      0.8779238082     1.2511552318     0.6782930910
C      1.5325412537     0.0197925337     0.7197130489
H     -1.0437558556     2.1566128585     0.5780549292
H      1.4530949652     2.1653955509     0.7022304635
N      3.0227159526     0.0487838914     0.8480789686
O      3.5278935786    -0.9486254918     1.2883210487
O      3.5577259751     1.0687196559     0.5051251840
C     -0.4426495707    -1.2573234000     0.5232052037
H     -0.9796450471    -2.1949570766     0.4511263983
C      0.9122416631    -1.2308951951     0.6484765015
H      1.5127042618    -2.1277849154     0.6824441247
C     -1.2318437997    -0.0225007149     0.5740501768
H     -1.7486733816    -0.0814210232     1.5442854989
Br    -2.7061264836     0.0662354694    -0.6707789464
