15
meta_th45_ph342 | OPTIMIZED | |g_proj|=2.129e-03 | E=-3010.3438150236 Ha
C     -0.9129234889     2.0379870385     0.7354182034
C      0.4868397883     1.9682144377     0.7079288080
C      1.1548863974     0.7364876403     0.6454998064
C      0.4822698430    -0.4291081986     0.5694619389
C     -1.6277367694     0.8837042951     0.6849648343
H     -1.3982187833     3.0005745841     0.7900925520
H      1.0860791438     2.8715906196     0.7480454179
H      1.0113088132    -1.3686892225     0.4820655902
H     -2.7079000826     0.8956503348     0.7084853149
N      2.6397797915     0.7241449150     0.6717680485
O      3.1562695210    -0.3482815240     0.5189206326
O      3.1705330655     1.7913570352     0.8328958646
C     -0.9818144023    -0.4337345155     0.6202008685
H     -1.2748129028    -0.9642131432     1.5379625776
Br    -1.6763931860    -1.5640852489    -0.7822527029
