15
para_th36_ph180 | OPTIMIZED | |g_proj|=1.394e-03 | E=-3010.3486948945 Ha
C     -0.4725120286     1.2481134915     0.4681432507
C      0.8787528582     1.2506086723     0.6434740579
C      1.5212758204     0.0182559219     0.7414627755
H     -1.0253525358     2.1762636408     0.3899575356
H      1.4576604293     2.1621636108     0.6730814202
N      3.0150813550     0.0373318607     0.8991218719
O      3.5469052243    -1.0358591425     0.9890330257
O      3.5224974622     1.1255090999     0.9340397171
C     -0.4493035406    -1.2482592387     0.4924575218
H     -0.9875990732    -2.1849479537     0.4201681731
C      0.9017756281    -1.2269956784     0.6676434188
H      1.4944612466    -2.1287941946     0.7110192252
C     -1.2250845873    -0.0071710312     0.5228975649
H     -1.5460628183     0.0073534082     1.5796636494
Br    -2.8665761420    -0.0460519891    -0.4667235297
