15
meta_th36_ph216 | OPTIMIZED | |g_proj|=1.903e-03 | E=-3010.3532142718 Ha
C     -0.9116510079     2.0336509067     0.7306497841
C      0.4828749788     1.9519282011     0.8070656241
C      1.1560153348     0.7330632264     0.6601331547
C      0.4913022353    -0.4319848085     0.4892459693
C     -1.6263631907     0.8892730541     0.5532536728
H     -1.4000934674     2.9957131799     0.7942130619
H      1.0800589761     2.8430115916     0.9602705537
H      1.0257952178    -1.3691109861     0.3857074437
H     -2.7069143780     0.9106100795     0.4976415041
N      2.6439973907     0.7371674615     0.6481261862
O      3.1746394448    -0.3076960925     0.3847646876
O      3.1646743225     1.7847252260     0.9250649616
C     -0.9732459998    -0.4271594363     0.5670953584
H     -1.1574811221    -0.7837730383     1.5912516438
Br    -1.8354419910    -1.7578195320    -0.5230258646
