15
meta_th9_ph216 | OPTIMIZED | |g_proj|=1.124e-04 | E=-3010.3620253234 Ha
C     -0.9162387652     2.0292846452     0.7498889287
C      0.4818985257     1.9606040869     0.7813149578
C      1.1584431365     0.7397005856     0.6520346932
C      0.4942681949    -0.4286057332     0.5003153323
C     -1.6308240233     0.8784655380     0.6075078054
H     -1.4098644619     2.9880653600     0.8263917785
H      1.0790159632     2.8587480615     0.8986273404
H      1.0327814096    -1.3633930700     0.3948851345
H     -2.7139828581     0.8908021699     0.5817710721
N      2.6474179339     0.7444848926     0.6554464389
O      3.1802023983    -0.3259900977     0.5392265454
O      3.1710235554     1.8201285777     0.7830939941
C     -0.9707745187    -0.4330629537     0.5662993158
H     -1.1788323401    -0.8666387098     1.5552768673
Br    -1.8163674169    -1.6909943662    -0.6206225078
