15
attempt 1 | |g_proj| = 4.983e-03 | E = -3010.3440821882 Ha
C     -1.7977811122     1.9500658988     0.7578712970
C     -0.3815482287     1.9904718216     0.7094198404
C      0.2773026637     0.8204555081     0.6847427963
C     -2.5225672025     0.7569722207     0.7818371736
H     -2.3359945776     2.8912035722     0.7983237759
H      0.1529897225     2.9278301656     0.7187853245
H     -3.6002560627     0.7815900506     0.8405446843
N      1.7610472684     0.8054958326     0.7442096490
O      2.2584685612    -0.2402773639     1.0776679839
O      2.3100855360     1.8314863123     0.4538879618
C     -1.8458243523    -0.4226972027     0.6942861987
H     -2.3719467799    -1.3660317593     0.6588042869
C     -0.3826224435    -0.4863645928     0.6044971037
H      0.0165169870    -1.1708465986     1.3571275927
Br     0.1086291592    -1.2848771619    -1.0922777276
15
attempt 2 | |g_proj| = 3.399e-03 | E = -3010.3441079248 Ha
C     -1.7978613411     1.9494637581     0.7575895544
C     -0.3811949133     1.9901684789     0.7104549096
C      0.2776487121     0.8209283064     0.6831539541
C     -2.5223734819     0.7565373895     0.7827508771
H     -2.3357706384     2.8908463971     0.7968835729
H      0.1530932466     2.9278323575     0.7183327828
H     -3.6000379874     0.7813762871     0.8408581567
N      1.7614982145     0.8054478542     0.7460555110
O      2.2570799325    -0.2398105252     1.0819548575
O      2.3111929645     1.8302312755     0.4502130603
C     -1.8458841253    -0.4235295004     0.6923601968
H     -2.3725528688    -1.3673172616     0.6604248664
C     -0.3836125402    -0.4838780291     0.6100578167
H      0.0172927647    -1.1723676944     1.3550281852
Br     0.1079811962    -1.2814523855    -1.0963903556
15
attempt 3 | |g_proj| = 7.256e-03 | E = -3010.3441459310 Ha
C     -1.7972572973     1.9476789321     0.7562871168
C     -0.3813057504     1.9919221942     0.7098783476
C      0.2775561771     0.8218657082     0.6912692900
C     -2.5227376486     0.7543682994     0.7821250809
H     -2.3359096866     2.8882489252     0.7884991025
H      0.1529156693     2.9297032174     0.7159432570
H     -3.6002680965     0.7803796602     0.8424882769
N      1.7613690275     0.8039336754     0.7481677796
O      2.2512449160    -0.2350413379     1.1133838965
O      2.3176485076     1.8175297691     0.4291860776
C     -1.8465089259    -0.4259864481     0.6992832246
H     -2.3716512618    -1.3707644992     0.6675058939
C     -0.3818359562    -0.4870707194     0.6058430587
H      0.0242665931    -1.1827374020     1.3458689836
Br     0.0989728634    -1.2495532618    -1.1060014356
15
attempt 4 | |g_proj| = 2.552e-03 | E = -3010.3441986142 Ha
C     -1.7975124874     1.9477343412     0.7550110955
C     -0.3811405479     1.9909172686     0.7112021696
C      0.2780536840     0.8218029333     0.6903514168
C     -2.5220674039     0.7542970370     0.7841990484
H     -2.3363160654     2.8887274237     0.7874318691
H      0.1523087120     2.9290110977     0.7154937603
H     -3.5995824233     0.7795023131     0.8420762133
N      1.7612303372     0.8028201434     0.7515192018
O      2.2510078066    -0.2348524989     1.1174209508
O      2.3164055376     1.8155745775     0.4246439474
C     -1.8457984628    -0.4258443591     0.6982300834
H     -2.3712297755    -1.3706021389     0.6686771002
C     -0.3831890133    -0.4835312385     0.6120978322
H      0.0252358815    -1.1835467891     1.3428126154
Br     0.0990933474    -1.2475333934    -1.1114393491
15
attempt 5 | |g_proj| = 2.146e-03 | E = -3010.3442000402 Ha
C     -1.7975603947     1.9478098965     0.7550990241
C     -0.3812045600     1.9910182591     0.7111195486
C      0.2778048406     0.8215613438     0.6909420234
C     -2.5220853621     0.7543780152     0.7841592221
H     -2.3363098380     2.8887058530     0.7870980684
H      0.1523082338     2.9291481571     0.7154262509
H     -3.5996718959     0.7793806488     0.8420915718
N      1.7611966484     0.8033066882     0.7512799424
O      2.2510373117    -0.2349840069     1.1186821180
O      2.3163001911     1.8147574200     0.4239486131
C     -1.8456275216    -0.4258092606     0.6986385748
H     -2.3711079034    -1.3705979916     0.6688464423
C     -0.3828737122    -0.4840226364     0.6114740871
H      0.0255106027    -1.1837944914     1.3423437112
Br     0.0987824824    -1.2463811727    -1.1114212385
15
attempt 6 | |g_proj| = 1.802e-03 | E = -3010.3442003444 Ha
C     -1.7975611652     1.9478146729     0.7550979103
C     -0.3812055182     1.9910048892     0.7111229989
C      0.2777955232     0.8215686724     0.6909804685
C     -2.5220807117     0.7543698248     0.7841654265
H     -2.3363146367     2.8887116326     0.7870631663
H      0.1523058682     2.9291574616     0.7154163800
H     -3.5996759161     0.7793681942     0.8420943916
N      1.7611813697     0.8031464242     0.7513405403
O      2.2509894090    -0.2348956159     1.1187822016
O      2.3163407187     1.8147690724     0.4238342580
C     -1.8456181506    -0.4258106153     0.6986658153
H     -2.3710937910    -1.3705936821     0.6688694035
C     -0.3828690746    -0.4840344956     0.6114640532
H      0.0255440163    -1.1838284843     1.3422927616
Br     0.0987611780    -1.2462712244    -1.1114618112
