15
para_th72_ph144 | OPTIMIZED | |g_proj|=1.268e-03 | E=-3010.3255330305 Ha
C     -0.4709664545     1.2338313506     0.7611746972
C      0.8778160343     1.2523280833     0.7893719840
C      1.5192274202     0.0116409175     0.7327073166
H     -1.0285632786     2.1546378882     0.8095236441
H      1.4551677514     2.1650169269     0.8239339966
N      2.9936422349     0.0324432502     0.7184649756
O      3.5157312826    -0.6888560790     1.5228898450
O      3.4885105445     0.7820934031    -0.0786523692
C     -0.4583269788    -1.2572903777     0.5912877090
H     -0.9988260159    -2.1911155493     0.4916442923
C      0.8954482489    -1.2327633411     0.6788049814
H      1.4842492815    -2.1332083900     0.6685632813
C     -1.2387875242    -0.0155888546     0.6517435560
H     -1.9561077050    -0.0917672140     1.4701197843
Br    -2.3122955692     0.1261184636    -0.9661380492
