15
attempt 1 | |g_proj| = 3.646e-03 | E = -3010.3284836885 Ha
C     -0.8930279623     2.0298474832     0.6500732737
C      0.4985904721     1.9599273941     0.7375508846
C      1.1622206276     0.7248542805     0.6560470244
C      0.4831278161    -0.4295230224     0.5461659560
C     -1.6181930812     0.8804807442     0.5888322878
H     -1.3749397343     2.9892139204     0.6471192912
H      1.0969907642     2.8589597240     0.8430669588
H      1.0005285513    -1.3684623165     0.4354632434
H     -2.6984074453     0.9040960668     0.5630108634
N      2.6336688629     0.7349785692     0.6544533412
O      3.1550317327     0.0039633156    -0.1411057237
O      3.1583935122     1.4888466765     1.4348647667
C     -0.9791576010    -0.4371711599     0.6536126541
H     -1.1960276589    -0.7864736055     1.6809977071
Br    -1.8206321225    -1.7519390783    -0.4786948276
