15
meta_th18_ph306 | OPTIMIZED | |g_proj|=1.291e-03 | E=-3010.3603252364 Ha
C     -0.9162100217     2.0325133870     0.7363145966
C      0.4818546307     1.9630488852     0.7700703240
C      1.1561406025     0.7421982783     0.6377492630
C      0.4907408030    -0.4229731574     0.4708977400
C     -1.6326602052     0.8828201549     0.5909237991
H     -1.4086098724     2.9910953036     0.8193298325
H      1.0770597386     2.8602649952     0.9008360739
H      1.0283416264    -1.3560812018     0.3473702999
H     -2.7156649274     0.8957259946     0.5747902262
N      2.6429200536     0.7348502812     0.6727465521
O      3.1711656528    -0.3231261273     0.4603510804
O      3.1694532023     1.7896733957     0.9120826628
C     -0.9710715839    -0.4274565114     0.5538516584
H     -1.1561799067    -0.8023592174     1.5739395868
Br    -1.8091130494    -1.7585954302    -0.5497959589
