15
attempt 1 | |g_proj| = 1.455e-03 | E = -3010.3178340781 Ha
C     -0.4946512668     1.2507226261     0.7869756326
C      0.8614518385     1.2385929422     0.8276299867
C      1.4998945830     0.0061358992     0.7685179057
H     -1.0445348735     2.1840807528     0.7840115405
H      1.4364061688     2.1475865675     0.8392451388
N      2.9848932866     0.0296286240     0.6334815354
O      3.5668480984    -0.9761771200     0.9346799939
O      3.4270507775     1.0610176911     0.2104765626
C     -0.4692835832    -1.2475856030     0.7275521871
H     -1.0107167797    -2.1806765770     0.6897283171
C      0.8831017817    -1.2423379161     0.7792516795
H      1.4719522617    -2.1475603905     0.7834192226
C     -1.2495035705    -0.0019665112     0.6777796493
H     -2.0956564631    -0.0243309123     1.3566452536
Br    -2.0013329836     0.0503904054    -1.1339549556
