15
attempt 1 | |g_proj| = 6.280e-03 | E = -3010.3293006556 Ha
C     -0.4593739672     1.2479536939     0.4226585073
C      0.8901557150     1.2324182784     0.5791497798
C      1.5230218197     0.0038316697     0.7219210683
H     -0.9992903502     2.1789395239     0.3034799466
H      1.4746268762     2.1336413564     0.5743189369
N      2.9999534772     0.0336682467     0.8929331118
O      3.6036501839    -0.9150146919     0.4680662693
O      3.4210590111     1.0033164962     1.4665276910
C     -0.4521431601    -1.2386072008     0.5774022104
H     -0.9954110933    -2.1694519568     0.5575211763
C      0.8955050593    -1.2403610854     0.7124562583
H      1.4780654044    -2.1481911651     0.7505467351
C     -1.2257022306     0.0081679684     0.5561247837
H     -1.5781573668     0.0929654747     1.6026850292
Br    -2.8100400662    -0.0757561291    -0.5203518085
15
attempt 2 | |g_proj| = 2.464e-04 | E = -3010.3296142093 Ha
C     -0.4625742631     1.2493380854     0.4297295607
C      0.8885464821     1.2434028275     0.5876921487
C      1.5244656939     0.0134866096     0.7245642605
H     -1.0100979299     2.1754274587     0.3030058053
H      1.4680581966     2.1502291831     0.5884232340
N      3.0035602795     0.0256155283     0.8821167468
O      3.5881239345    -0.9249364151     0.4385597429
O      3.4418477434     0.9800226249     1.4638126691
C     -0.4495485295    -1.2382266913     0.5869495315
H     -0.9951143347    -2.1686858483     0.5783893236
C      0.8985828978    -1.2333764965     0.7144279621
H      1.4878418802    -2.1372975243     0.7665300373
C     -1.2260831443     0.0065028919     0.5572075006
H     -1.6032773303     0.0863987886     1.5939799400
Br    -2.7884122601    -0.0803805433    -0.5499487629
