15
para_th45_ph162 | OPTIMIZED | |g_proj|=1.744e-03 | E=-3010.3428403207 Ha
C     -0.4699402738     1.2466137194     0.5466895309
C      0.8797228181     1.2507494109     0.7003602297
C      1.5223327891     0.0152258546     0.7517695117
H     -1.0224099046     2.1753548175     0.5028468693
H      1.4592647396     2.1615571467     0.7324914415
N      3.0163813435     0.0382816805     0.8445057664
O      3.5350397865    -0.9931364387     1.1749056308
O      3.5353785478     1.0914827926     0.5908747530
C     -0.4497947569    -1.2502682904     0.5109288082
H     -0.9888565642    -2.1859008240     0.4233149129
C      0.9011420249    -1.2295343082     0.6815042242
H      1.4914647274    -2.1321530264     0.7185459999
C     -1.2277254062    -0.0089386839     0.5492479533
H     -1.6621074197    -0.0327380678     1.5601255207
Br    -2.7539731567     0.0009246959    -0.6226714801
