15
attempt 1 | |g_proj| = 5.495e-03 | E = -3010.3501913715 Ha
C     -0.9248030929     2.0221823221     0.7645351418
C      0.4734480780     1.9586907890     0.7024697937
C      1.1539566092     0.7333400427     0.6596131550
C      0.4925065488    -0.4416684878     0.6347154793
C     -1.6362338435     0.8642266059     0.7385337095
H     -1.4177037980     2.9827000938     0.8239764145
H      1.0686276909     2.8657314310     0.6983099168
H      1.0337141191    -1.3781009358     0.5743449387
H     -2.7196165609     0.8762352121     0.7644754497
N      2.6412654537     0.7356101151     0.6391062203
O      3.1766117420    -0.3394264875     0.6433651434
O      3.1634142037     1.8179039735     0.6168275857
C     -0.9785265046    -0.4519666841     0.6371630567
H     -1.3107042250    -1.0582950721     1.4895876592
Br    -1.6077897041    -1.3855639900    -0.9155660260
15
attempt 2 | |g_proj| = 5.381e-03 | E = -3010.3502719190 Ha
C     -0.9236840463     2.0222529868     0.7711408508
C      0.4735618842     1.9535870386     0.7063930062
C      1.1556436216     0.7289429746     0.6634131266
C      0.4949003297    -0.4471243379     0.6324391866
C     -1.6331092894     0.8633404081     0.7543060339
H     -1.4190522733     2.9819315356     0.8171230775
H      1.0687599776     2.8592120206     0.6868716434
H      1.0312787459    -1.3886636909     0.5890818270
H     -2.7156567945     0.8652260325     0.7770071298
N      2.6424627838     0.7414916738     0.6420554457
O      3.1783031613    -0.3320065612     0.7048909825
O      3.1596951458     1.8235596873     0.5460361220
C     -0.9772622439    -0.4522656952     0.6508520406
H     -1.3237492058    -1.0915551430     1.4732243428
Br    -1.6039250791    -1.3263299970    -0.9433771726
15
attempt 3 | |g_proj| = 1.912e-03 | E = -3010.3503223522 Ha
C     -0.9247791271     2.0205986128     0.7706763738
C      0.4726487080     1.9549265496     0.7029099875
C      1.1541764288     0.7290017751     0.6630906770
C      0.4940234290    -0.4471080485     0.6418477593
C     -1.6338223345     0.8608397861     0.7556348353
H     -1.4179775303     2.9815517032     0.8181229859
H      1.0696856284     2.8603888390     0.6871737266
H      1.0317624239    -1.3867261904     0.5879449792
H     -2.7166926121     0.8672759740     0.7795226174
N      2.6418301310     0.7396714049     0.6388527628
O      3.1806202330    -0.3317442600     0.7076918622
O      3.1585273477     1.8216785512     0.5450465956
C     -0.9771336063    -0.4535248197     0.6491749014
H     -1.3218889410    -1.0899149171     1.4707508327
Br    -1.6028134598    -1.3253160228    -0.9469832495
