15
ortho_th18_ph90 | OPTIMIZED | |g_proj|=3.026e-03 | E=-3010.3458870777 Ha
C     -1.7940102945     1.9443599570     0.7404547155
C     -0.3784123592     1.9888169392     0.7108457853
C      0.2853556872     0.8205093570     0.6933306765
C     -2.5226863584     0.7533863872     0.7699583228
H     -2.3317043983     2.8857217207     0.7633527841
H      0.1576939899     2.9275057834     0.7245040025
H     -3.6022220871     0.7771732505     0.8211633874
N      1.7724085332     0.8140186135     0.7458652002
O      2.2776067092    -0.2467824603     1.0124114352
O      2.3183889416     1.8624313032     0.5344472690
C     -1.8466650218    -0.4288008653     0.7123565195
H     -2.3760315406    -1.3732883836     0.6864558533
C     -0.3801186573    -0.4870757379     0.6122038084
H      0.0340266079    -1.1699845771     1.3571766718
Br     0.0328693401    -1.2835145284    -1.0947984357
