15
attempt 1 | |g_proj| = 1.099e-03 | E = -3010.3384212266 Ha
C     -0.4584430383     1.2479376563     0.4172378418
C      0.8936582290     1.2464925854     0.5635505392
C      1.5332216303     0.0163871262     0.7100906139
H     -1.0054949276     2.1721901263     0.2851398940
H      1.4750747472     2.1524996799     0.5598405888
N      3.0068521883     0.0218505746     0.8917665918
O      3.6028320966    -0.8804429923     0.3699728738
O      3.4326051883     0.9181181946     1.5684665898
C     -0.4497241504    -1.2314771788     0.6051798998
H     -0.9991530635    -2.1590611559     0.6176661769
C      0.9007413729    -1.2288048283     0.7012894796
H      1.4904372959    -2.1316784726     0.7488304739
C     -1.2273103686     0.0106102304     0.5692153735
H     -1.6295456770     0.1141056535     1.5921431392
Br    -2.7998322111    -0.1212067203    -0.5349503799
