15
attempt 1 | |g_proj| = 3.851e-04 | E = -3010.3360228894 Ha
C     -0.4671078355     1.2448020701     0.8422154927
C      0.8872130856     1.2343509158     0.8900378444
C      1.5376395406     0.0109477133     0.6997272408
H     -1.0222850782     2.1638580736     0.9640625779
H      1.4655179898     2.1253338104     1.0573034505
N      3.0037959367    -0.0051725822     0.7424403716
O      3.4771765958     0.2940916286     1.8038818033
O      3.5444851428    -0.3375697742    -0.2753641169
C     -0.4533191164    -1.2128833567     0.4885553610
H     -1.0033975807    -2.1275955956     0.3483110894
C      0.8959339017    -1.2163949894     0.4814273513
H      1.4833312648    -2.1055402059     0.3172846581
C     -1.2405353746     0.0111508106     0.6703677570
H     -1.9268190024    -0.0928586880     1.5167707402
Br    -2.4157101720     0.1610006485    -0.8815819441
