15
meta_th72_ph126 | OPTIMIZED | |g_proj|=6.196e-04 | E=-3010.3302770852 Ha
C     -0.9012435265     1.9888537538     0.8232908008
C      0.4813147044     1.9295861888     0.6819448846
C      1.1588422530     0.6936667298     0.6576844879
C      0.4921183517    -0.4699811849     0.6647562839
C     -1.6138885066     0.8284136038     0.8495055841
H     -1.3881823427     2.9433440813     0.8965435830
H      1.0716008610     2.8360389984     0.6067738194
H      1.0165728921    -1.4110555242     0.6518199426
H     -2.6907649888     0.8342458910     0.9441212512
N      2.6299025804     0.7378096489     0.6389137996
O      3.1840793078    -0.0212816720     1.3843309500
O      3.1221858977     1.5523776987    -0.0994632543
C     -0.9766471262    -0.4762133864     0.6513790337
H     -1.3926905939    -1.2552599636     1.2897402527
Br    -1.5850330399    -0.9089459081    -1.1698837537
