15
meta_th36_ph18 | OPTIMIZED | |g_proj|=1.826e-03 | E=-3010.3407536450 Ha
C     -0.9313682120     2.0176268610     0.7748964256
C      0.4638847858     1.9502666358     0.6665320260
C      1.1448031809     0.7251241707     0.6696520156
C      0.4871467168    -0.4504414786     0.7192998232
C     -1.6371960783     0.8582846765     0.8101093558
H     -1.4224261746     2.9794260066     0.8138535600
H      1.0549466081     2.8564850631     0.5956051951
H      1.0262029349    -1.3900757871     0.7016602684
H     -2.7174198056     0.8661036863     0.8629005297
N      2.6299773136     0.7262124370     0.6204707277
O      3.1622806061    -0.3487915985     0.6821779692
O      3.1467958685     1.8046832959     0.5001574174
C     -0.9833696475    -0.4579557609     0.6901498037
H     -1.3925924733    -1.1634995728     1.4171912280
Br    -1.4234989069    -1.1718497074    -1.0531987065
