15
para_th54_ph0 | OPTIMIZED | |g_proj|=1.247e-03 | E=-3010.3211753635 Ha
C     -0.5175707624     1.2453863060     0.8192871089
C      0.8387112709     1.2552536083     0.7774030535
C      1.4842684073     0.0239868737     0.7184922569
H     -1.0755027511     2.1722049006     0.8456544551
H      1.4105388503     2.1695121387     0.7851548792
N      2.9777169960     0.0455769911     0.6020128177
O      3.5091172657    -1.0288056906     0.5317225603
O      3.4809830952     1.1349891574     0.5641164426
C     -0.4822961343    -1.2527662520     0.8340521719
H     -1.0144782720    -2.1943933833     0.8723491185
C      0.8739878839    -1.2243868039     0.7899509089
H      1.4706883562    -2.1224771969     0.8048940600
C     -1.2678673794    -0.0154553606     0.6857859162
H     -2.1968105881    -0.0250266587     1.2508651634
Br    -1.7255670066    -0.0360781522    -1.2163013179
