15
meta_th45_ph324 | OPTIMIZED | |g_proj|=5.017e-04 | E=-3010.3474365176 Ha
C     -0.9086354547     2.0385598537     0.7160801651
C      0.4903730841     1.9711597211     0.7310898265
C      1.1567362765     0.7413949872     0.6368707877
C      0.4823900847    -0.4210481645     0.5256944182
C     -1.6271874574     0.8874893617     0.6213987345
H     -1.3941529497     2.9993760078     0.7748050127
H      1.0877100416     2.8724714224     0.8200361872
H      1.0122646206    -1.3585017730     0.4295557118
H     -2.7080212562     0.9034479302     0.6190532138
N      2.6386350734     0.7240485210     0.6730474290
O      3.1559321308    -0.3019069452     0.3262915092
O      3.1692988684     1.7393041414     1.0409145150
C     -0.9790002251    -0.4283469652     0.6001593388
H     -1.2266101098    -0.8587166133     1.5847112650
Br    -1.7415659801    -1.7071324423    -0.6282503641
