15
attempt 1 | |g_proj| = 9.981e-04 | E = -3010.3176229304 Ha
C     -1.7661877385     1.9218829131     0.7623946426
C     -0.3566332806     1.9814341617     0.7195124673
C      0.2923015344     0.8134838616     0.6900627361
C     -2.4906373786     0.7343220153     0.7983950632
H     -2.3038074035     2.8567469883     0.7818110378
H      0.1739871413     2.9229113051     0.7364939399
H     -3.5645556944     0.7505404187     0.8600373202
N      1.7582108103     0.8028522800     0.8047926463
O      2.1595444099     0.0644395456     1.6676688487
O      2.3721420247     1.5448292328     0.0909409411
C     -1.8291969318    -0.4522289149     0.7241489301
H     -2.3635846311    -1.3943800853     0.6941101901
C     -0.3686834368    -0.4930660310     0.5752992145
H      0.1118884505    -1.2494088869     1.1884790467
Br    -0.1782887687    -1.0198820641    -1.3044190462
