15
attempt 1 | |g_proj| = 1.999e-03 | E = -3010.3498027305 Ha
C     -1.7941684347     1.9492351026     0.7451394774
C     -0.3774644408     1.9907704347     0.7160317184
C      0.2861033803     0.8224422309     0.6788409510
C     -2.5228980277     0.7584237531     0.7562456722
H     -2.3304114643     2.8914365563     0.7759445973
H      0.1600951504     2.9286433513     0.7420898203
H     -3.6026264243     0.7811903457     0.8005340730
N      1.7750190829     0.8238397979     0.7303788948
O      2.2909579733    -0.2503493171     0.9065524340
O      2.3110862335     1.8920570885     0.6150046590
C     -1.8464686895    -0.4247346846     0.7007687505
H     -2.3756585315    -1.3702577568     0.6817744121
C     -0.3795171231    -0.4857956101     0.6154240063
H      0.0293377159    -1.1514915256     1.3773303572
Br     0.0231127034    -1.3709330216    -1.0523318412
