15
ortho_th54_ph126 | OPTIMIZED | |g_proj|=2.811e-03 | E=-3010.3238378788 Ha
C     -1.7704525539     1.9129471018     0.7172521682
C     -0.3610891501     1.9691231953     0.7269789627
C      0.3014542462     0.8051106650     0.7409086503
C     -2.5010420979     0.7287782437     0.7801883026
H     -2.3070336399     2.8486504340     0.6820470380
H      0.1735065577     2.9072102925     0.7395558334
H     -3.5790837506     0.7493783870     0.8161898794
N      1.7739392707     0.8044078484     0.8235875982
O      2.2253265197    -0.0203248086     1.5777849277
O      2.3523082213     1.6349464499     0.1793366483
C     -1.8292573822    -0.4544183936     0.7718580916
H     -2.3602437464    -1.3974977746     0.7558476480
C     -0.3654818438    -0.4971648578     0.6003447393
H      0.1303312202    -1.2753416004     1.1757580129
Br    -0.2366827882    -0.9313284145    -1.2979104955
