15
attempt 1 | |g_proj| = 6.234e-05 | E = -3010.3581414901 Ha
C     -0.4788582964     1.2426053281     0.4916847263
C      0.8768995673     1.2544391268     0.6343500962
C      1.5294076591     0.0246512680     0.7205758892
H     -1.0421620237     2.1657672676     0.4265988112
H      1.4512980277     2.1695312161     0.6707756207
N      3.0223272405     0.0468663636     0.9011812447
O      3.5597736975    -1.0257380942     0.9694662174
O      3.5282731489     1.1350246372     0.9639179629
C     -0.4431514589    -1.2522620904     0.5027302206
H     -0.9795479399    -2.1918049412     0.4453621277
C      0.9123045918    -1.2240108858     0.6458016191
H      1.5125707148    -2.1219543958     0.6904996461
C     -1.2265602915    -0.0156580942     0.5294849467
H     -1.6042307865    -0.0162995460     1.5671044709
Br    -2.8524245821    -0.0436366812    -0.4940939589
