15
attempt 1 | |g_proj| = 3.072e-04 | E = -3010.3265950101 Ha
C     -0.9033933606     1.9792978847     0.8450311322
C      0.4753121933     1.9161009614     0.6853631913
C      1.1592387601     0.6838623012     0.6767694067
C      0.4924041066    -0.4775643379     0.6982895896
C     -1.6216251081     0.8212200288     0.8725778288
H     -1.3945008967     2.9312465220     0.9220597546
H      1.0613093815     2.8214851867     0.5875770153
H      1.0160859737    -1.4192831053     0.6923796390
H     -2.7003554434     0.8300273294     0.9658820817
N      2.6297921457     0.7340086043     0.6304458021
O      3.2131875626     0.1008276864     1.4668873241
O      3.0932077099     1.4307418761    -0.2363141674
C     -0.9787752126    -0.4783076507     0.6508211673
H     -1.4223926148    -1.2820162210     1.2334062864
Br    -1.5113284748    -0.7900481156    -1.2197183906
