15
meta_th54_ph270 | OPTIMIZED | |g_proj|=5.083e-03 | E=-3010.3405771105 Ha
C     -0.9059612633     2.0297129588     0.6899082088
C      0.4842569844     1.9484541071     0.7893123851
C      1.1594404555     0.7336851282     0.6346737689
C      0.4883191613    -0.4229579816     0.4538184724
C     -1.6308053607     0.8890146292     0.5180440570
H     -1.3955390381     2.9870897868     0.7446450296
H      1.0792785291     2.8324522130     0.9740753091
H      1.0190964208    -1.3568200302     0.3331593929
H     -2.7132969826     0.9103485649     0.4634324608
N      2.6395202239     0.7308156379     0.6667397942
O      3.1787251008    -0.1926928388     0.1225818132
O      3.1568647502     1.6474659985     1.2481004371
C     -0.9744114186    -0.4242462563     0.5672013290
H     -1.1110857204    -0.6714113622     1.6373499006
Br    -1.8662350993    -1.8393115271    -0.3715846216
