15
ortho_th36_ph36 | OPTIMIZED | |g_proj|=1.802e-03 | E=-3010.3442003444 Ha
C     -1.7975611652     1.9478146729     0.7550979103
C     -0.3812055182     1.9910048892     0.7111229989
C      0.2777955232     0.8215686724     0.6909804685
C     -2.5220807117     0.7543698248     0.7841654265
H     -2.3363146367     2.8887116326     0.7870631663
H      0.1523058682     2.9291574616     0.7154163800
H     -3.5996759161     0.7793681942     0.8420943916
N      1.7611813697     0.8031464242     0.7513405403
O      2.2509894090    -0.2348956159     1.1187822016
O      2.3163407187     1.8147690724     0.4238342580
C     -1.8456181506    -0.4258106153     0.6986658153
H     -2.3710937910    -1.3705936821     0.6688694035
C     -0.3828690746    -0.4840344956     0.6114640532
H      0.0255440163    -1.1838284843     1.3422927616
Br     0.0987611780    -1.2462712244    -1.1114618112
