15
attempt 1 | |g_proj| = 6.097e-04 | E = -3010.3348940111 Ha
C     -0.9144766291     2.0189791457     0.7695266549
C      0.4826191475     1.9588940898     0.7151725677
C      1.1511180590     0.7269584609     0.6725339855
C      0.4863719460    -0.4454570678     0.6687819238
C     -1.6167190892     0.8597529273     0.7660751363
H     -1.4010299844     2.9786160002     0.8070279557
H      1.0736987263     2.8680188321     0.6985017191
H      1.0185870617    -1.3844841329     0.6460405701
H     -2.6930555781     0.8678393251     0.8011429520
N      2.6299896280     0.7275566549     0.6140430500
O      3.1466213747    -0.3373614332     0.8041508029
O      3.1540152132     1.7878162053     0.3949759398
C     -0.9763037122    -0.4560545134     0.6866720059
H     -1.3529172507    -1.1477950076     1.4423803537
Br    -1.5803521868    -1.2216805217    -1.0155679430
