15
attempt 1 | |g_proj| = 2.075e-03 | E = -3010.3589268628 Ha
C     -0.9124773370     2.0311109748     0.7202351763
C      0.4836133428     1.9582151117     0.7943144256
C      1.1571917648     0.7409416391     0.6365904829
C      0.4889822867    -0.4211125954     0.4520904892
C     -1.6307889257     0.8857129316     0.5473703295
H     -1.4038868477     2.9899178151     0.7921617011
H      1.0778599268     2.8480240755     0.9727852807
H      1.0256274659    -1.3537790216     0.3289340192
H     -2.7122594738     0.9017789851     0.4928142951
N      2.6439622942     0.7344317158     0.6687935150
O      3.1733037924    -0.2878462592     0.3253598699
O      3.1690769878     1.7542867702     1.0317566944
C     -0.9724984778    -0.4251327409     0.5472689379
H     -1.1287506779    -0.7325176724     1.5959597703
Br    -1.8507893821    -1.8224327135    -0.4349772633
