15
ortho_th36_ph252 | OPTIMIZED | |g_proj|=2.584e-03 | E=-3010.3463961900 Ha
C     -1.7878180094     1.9579689655     0.7135247937
C     -0.3683106584     1.9856468113     0.7185961676
C      0.3025530630     0.8229783994     0.6529921046
C     -2.5163675882     0.7775425029     0.6692581570
H     -2.3203630033     2.9009316262     0.7517913179
H      0.1663721325     2.9215736010     0.7774607579
H     -3.5966765238     0.7969636235     0.6639707246
N      1.7867343257     0.8458069032     0.7066155690
O      2.3479165909    -0.1586692832     0.3527138489
O      2.2825899590     1.8633020141     1.1084128226
C     -1.8335682734    -0.4061692836     0.7057179760
H     -2.3631670518    -1.3450422423     0.7692367228
C     -0.3692154657    -0.4831414366     0.6726509879
H      0.0432072692    -1.1110304885     1.4570131472
Br    -0.1273877177    -1.5841849032    -0.9302270487
