15
ortho_th72_ph270 | OPTIMIZED | |g_proj|=1.729e-03 | E=-3010.3244178515 Ha
C     -1.7605050495     1.9505598368     0.6219275798
C     -0.3588022721     1.9729242624     0.6130056062
C      0.3059175266     0.8009338365     0.6472222614
C     -2.5167370170     0.7774282936     0.7058622471
H     -2.2846593709     2.8931215846     0.5735926821
H      0.1817926356     2.9036051585     0.5813753201
H     -3.5957757337     0.8196108388     0.7154682531
N      1.7755268627     0.8293999107     0.6956017664
O      2.3564790942     0.5043532978    -0.3011613932
O      2.2243157425     1.1971501092     1.7496926392
C     -1.8575985285    -0.3990690883     0.7883587503
H     -2.4015815388    -1.3249086276     0.8869601471
C     -0.3861937336    -0.4977235043     0.7368007618
H     -0.0115425179    -1.0466455424     1.6007356025
Br    -0.0241370357    -1.5962635754    -0.8257141952
