15
ortho_th54_ph90 | OPTIMIZED | |g_proj|=2.008e-03 | E=-3010.3273345718 Ha
C     -1.7837479914     1.9220963902     0.7415961538
C     -0.3771090795     1.9763765972     0.7331020002
C      0.2950073490     0.8104659857     0.7517059945
C     -2.5134932652     0.7294996971     0.7963267205
H     -2.3297770384     2.8558665155     0.7200150321
H      0.1497541280     2.9165212406     0.7261511275
H     -3.5925500225     0.7522994756     0.8450746510
N      1.7662270193     0.7830928950     0.8107372151
O      2.2194173850    -0.0065397797     1.6005005961
O      2.3485671160     1.5354119646     0.0807864983
C     -1.8346681242    -0.4428591316     0.7479037776
H     -2.3576952793    -1.3863015165     0.7178037444
C     -0.3691915088    -0.4891316810     0.6000322956
H      0.1014298578    -1.2665889844     1.2001910388
Br    -0.0756714548    -0.9057329095    -1.2821988496
