15
attempt 1 | |g_proj| = 5.259e-03 | E = -3010.3469564998 Ha
C     -0.9085340062     2.0327103580     0.7366515560
C      0.4841749993     1.9404131627     0.7977333657
C      1.1547146923     0.7187460480     0.6705049027
C      0.4905716620    -0.4492355744     0.5280715454
C     -1.6223235537     0.8883249078     0.5818035536
H     -1.3870301059     3.0001206264     0.7968721524
H      1.0859848103     2.8312704262     0.9171151012
H      1.0250358055    -1.3890569930     0.4400001336
H     -2.7014199279     0.9191289975     0.5354276628
N      2.6412890900     0.7452288019     0.6398604776
O      3.1811889168    -0.3073861991     0.4356735755
O      3.1466036606     1.8170782482     0.8464741131
C     -0.9778127504    -0.4345757481     0.5873244145
H     -1.1949567568    -0.8312256194     1.5895300602
Br    -1.8093198036    -1.6799424555    -0.6315849171
15
attempt 2 | |g_proj| = 2.941e-03 | E = -3010.3470301758 Ha
C     -0.9084604174     2.0333409773     0.7377315046
C      0.4859401011     1.9491223636     0.7981564053
C      1.1556162129     0.7261332205     0.6707699480
C      0.4909540912    -0.4404645181     0.5233137935
C     -1.6210909731     0.8883113106     0.5781652167
H     -1.3906876035     2.9980014152     0.7931791470
H      1.0879956195     2.8403508079     0.9255596933
H      1.0178879108    -1.3832407874     0.4351428696
H     -2.7004661047     0.9096569275     0.5279263728
N      2.6411674081     0.7403928793     0.6408277470
O      3.1784824681    -0.3120916709     0.4307163641
O      3.1515609675     1.8083187326     0.8500288330
C     -0.9742760624    -0.4308276969     0.5893731145
H     -1.1965779061    -0.8418062246     1.5833896646
Br    -1.8098789783    -1.6835987448    -0.6128229723
15
attempt 3 | |g_proj| = 2.573e-03 | E = -3010.3470546097 Ha
C     -0.9087542851     2.0352477859     0.7354180655
C      0.4858169045     1.9494675933     0.8017931476
C      1.1559643298     0.7273176177     0.6694307859
C      0.4903529104    -0.4398415766     0.5244065153
C     -1.6208402617     0.8890666975     0.5794968879
H     -1.3932862979     2.9998085346     0.7912096123
H      1.0851598999     2.8423496203     0.9297714911
H      1.0203002815    -1.3803791851     0.4311943167
H     -2.6995733247     0.9100870167     0.5239448664
N      2.6426357086     0.7407780867     0.6392657422
O      3.1734730278    -0.3150400191     0.4275880704
O      3.1575869375     1.8058125141     0.8543508497
C     -0.9755574744    -0.4315361972     0.5886061319
H     -1.1923421352    -0.8400126999     1.5852680257
Br    -1.8127694862    -1.6915267923    -0.6102868022
15
attempt 4 | |g_proj| = 1.500e-03 | E = -3010.3470596840 Ha
C     -0.9091924392     2.0347841289     0.7361486602
C      0.4854004497     1.9503445162     0.8013888749
C      1.1555929463     0.7280706339     0.6701737775
C      0.4907194598    -0.4390302411     0.5227382592
C     -1.6209424829     0.8887068159     0.5778279674
H     -1.3932180576     2.9993803006     0.7905433050
H      1.0850386675     2.8428030746     0.9311796641
H      1.0205014177    -1.3798171363     0.4305524302
H     -2.6998512072     0.9102801568     0.5233114060
N      2.6420390828     0.7398538698     0.6399196854
O      3.1734111946    -0.3151503928     0.4263043711
O      3.1578023920     1.8042032816     0.8549412348
C     -0.9748933706    -0.4315090155     0.5886594291
H     -1.1917822504    -0.8396178100     1.5855343629
Br    -1.8124590665    -1.6917031812    -0.6077657169
