15
attempt 1 | |g_proj| = 3.324e-03 | E = -3010.3537715009 Ha
C     -0.4741625277     1.2415745020     0.5654191928
C      0.8810186519     1.2538798298     0.6773905401
C      1.5304920256     0.0194688929     0.7303293489
H     -1.0381484718     2.1649292228     0.5463161121
H      1.4586299356     2.1672895421     0.7009807166
N      3.0213431736     0.0426868563     0.8591424966
O      3.5343343279    -0.9754332497     1.2388921851
O      3.5486465963     1.0854038606     0.5781585317
C     -0.4441336058    -1.2518008152     0.5104907114
H     -0.9795342917    -2.1899439930     0.4342945811
C      0.9092744787    -1.2275526365     0.6541392266
H      1.5085664168    -2.1244348461     0.6877560515
C     -1.2284641469    -0.0158339348     0.5587778402
H     -1.7091735002    -0.0614622851     1.5488162238
Br    -2.7527698047     0.0187495312    -0.6254641311
15
attempt 2 | |g_proj| = 2.041e-03 | E = -3010.3537976289 Ha
C     -0.4769160960     1.2393130021     0.5657510275
C      0.8781741242     1.2526619031     0.6753343444
C      1.5306367290     0.0204570213     0.7278914668
H     -1.0380710676     2.1639327117     0.5416898182
H      1.4570473214     2.1650169431     0.7027174047
N      3.0224586398     0.0456758273     0.8604622872
O      3.5322709928    -0.9746824754     1.2379440030
O      3.5545175424     1.0861139798     0.5805489902
C     -0.4435360183    -1.2528575834     0.5131463688
H     -0.9810000642    -2.1895473284     0.4337479234
C      0.9109926362    -1.2278102421     0.6526054984
H      1.5093531414    -2.1260395945     0.6887519118
C     -1.2296536422    -0.0178558331     0.5596152481
H     -1.7058623013    -0.0620145590     1.5490185712
Br    -2.7544926763     0.0251567050    -0.6237852319
15
attempt 3 | |g_proj| = 1.319e-03 | E = -3010.3538016578 Ha
C     -0.4764768650     1.2393469049     0.5644888601
C      0.8785970094     1.2522965352     0.6753295199
C      1.5309932506     0.0201623943     0.7274535024
H     -1.0388750840     2.1633912552     0.5401736170
H      1.4561681956     2.1650190107     0.7028943718
N      3.0229125453     0.0456022613     0.8596521411
O      3.5320330087    -0.9747694224     1.2383203295
O      3.5548873350     1.0868124408     0.5821643926
C     -0.4434349673    -1.2531229378     0.5118253572
H     -0.9809811029    -2.1899206469     0.4342792401
C      0.9108113820    -1.2281704591     0.6527431166
H      1.5095761791    -2.1258631706     0.6888507560
C     -1.2293967014    -0.0177669398     0.5591877916
H     -1.7056340174    -0.0626432536     1.5506479657
Br    -2.7552609026     0.0271465054    -0.6225713252
