15
para_th27_ph126 | OPTIMIZED | |g_proj|=1.319e-03 | E=-3010.3538016578 Ha
C     -0.4764768650     1.2393469049     0.5644888601
C      0.8785970094     1.2522965352     0.6753295199
C      1.5309932506     0.0201623943     0.7274535024
H     -1.0388750840     2.1633912552     0.5401736170
H      1.4561681956     2.1650190107     0.7028943718
N      3.0229125453     0.0456022613     0.8596521411
O      3.5320330087    -0.9747694224     1.2383203295
O      3.5548873350     1.0868124408     0.5821643926
C     -0.4434349673    -1.2531229378     0.5118253572
H     -0.9809811029    -2.1899206469     0.4342792401
C      0.9108113820    -1.2281704591     0.6527431166
H      1.5095761791    -2.1258631706     0.6888507560
C     -1.2293967014    -0.0177669398     0.5591877916
H     -1.7056340174    -0.0626432536     1.5506479657
Br    -2.7552609026     0.0271465054    -0.6225713252
