15
attempt 1 | |g_proj| = 6.033e-04 | E = -3010.3563473322 Ha
C     -0.9126208436     2.0299670302     0.7462963797
C      0.4842625731     1.9576439705     0.7960927179
C      1.1586695025     0.7345003633     0.6677335348
C      0.4939114840    -0.4334222262     0.5242701752
C     -1.6246151856     0.8793297912     0.6075558053
H     -1.4047836758     2.9899129177     0.8063471966
H      1.0810217105     2.8552793023     0.9174679609
H      1.0299842954    -1.3698178560     0.4279975967
H     -2.7059361410     0.8960624806     0.5700837141
N      2.6464420207     0.7439915262     0.6432588576
O      3.1778139953    -0.3299541437     0.5665841849
O      3.1679493875     1.8254097226     0.7189502652
C     -0.9716373917    -0.4357889489     0.5835062760
H     -1.1960060532    -0.8945403635     1.5559377391
Br    -1.8162889461    -1.6469745777    -0.6606247070
