15
attempt 1 | |g_proj| = 1.366e-04 | E = -3010.3568450824 Ha
C     -0.4754555659     1.2447523886     0.4644509313
C      0.8793481506     1.2541959116     0.6186090322
C      1.5290088412     0.0240942754     0.7216214519
H     -1.0364179341     2.1679215398     0.3831298706
H      1.4549211848     2.1681385679     0.6512093856
N      3.0200174784     0.0418698032     0.9084797015
O      3.5692940568    -1.0254183056     0.8533402585
O      3.5118767578     1.1206018644     1.1039412313
C     -0.4448915352    -1.2487973001     0.5110169127
H     -0.9831509212    -2.1873398413     0.4642885257
C      0.9099718036    -1.2234326554     0.6545023627
H      1.5086747700    -2.1222088348     0.7008124826
C     -1.2257296393    -0.0107969718     0.5278895365
H     -1.5841492206     0.0157089521     1.5718880340
Br    -2.8673989482    -0.0717689162    -0.4697400621
