15
attempt 1 | |g_proj| = 1.988e-03 | E = -3010.3517087629 Ha
C     -0.4827148635     1.2440818977     0.5545316757
C      0.8738453032     1.2569238159     0.6608185195
C      1.5253381176     0.0244550794     0.7216033380
H     -1.0492784340     2.1653805363     0.4914650002
H      1.4520569844     2.1694977135     0.6966909402
N      3.0231302080     0.0473308813     0.8507184389
O      3.5635808546    -1.0251646256     0.8811894235
O      3.5291518564     1.1360460767     0.8950920107
C     -0.4468715256    -1.2541354773     0.5664104579
H     -0.9868310258    -2.1920576003     0.5148565115
C      0.9096448175    -1.2268395535     0.6723855690
H      1.5139645598    -2.1220039329     0.7167464814
C     -1.2321377072    -0.0159375816     0.5642938141
H     -1.7300738864    -0.0193373951     1.5496447039
Br    -2.6968860274    -0.0407193570    -0.6710072895
