15
attempt 1 | |g_proj| = 4.283e-03 | E = -3010.3499357349 Ha
C     -0.4701219575     1.2360097345     0.6056652282
C      0.8842386333     1.2549865357     0.6924253450
C      1.5299720336     0.0185315205     0.7280733127
H     -1.0289837962     2.1605759654     0.6031158095
H      1.4648090816     2.1679273297     0.7114359519
N      3.0172252791     0.0456302913     0.8368811615
O      3.5220419368    -0.9242833397     1.3343369378
O      3.5498763057     1.0409128577     0.4243455192
C     -0.4480444902    -1.2573641002     0.5234184218
H     -0.9866230938    -2.1939136357     0.4352573755
C      0.9054169586    -1.2296293455     0.6576115807
H      1.5028518507    -2.1265847358     0.6861924374
C     -1.2297031430    -0.0197715035     0.5776705127
H     -1.7581533509    -0.0794174852     1.5390552039
Br    -2.6888829870     0.0539103885    -0.6900451654
15
attempt 2 | |g_proj| = 2.691e-03 | E = -3010.3499822487 Ha
C     -0.4734172093     1.2365855210     0.6008593601
C      0.8801979249     1.2508852710     0.6915425228
C      1.5312878456     0.0169062211     0.7273119207
H     -1.0345821119     2.1596818806     0.5980487557
H      1.4593478643     2.1623187360     0.7129119084
N      3.0196662035     0.0440991455     0.8352319769
O      3.5230759508    -0.9255101938     1.3348661914
O      3.5530423157     1.0410068435     0.4285858262
C     -0.4450362445    -1.2537700855     0.5194524880
H     -0.9838151306    -2.1896743995     0.4374640946
C      0.9089801020    -1.2301737973     0.6568717186
H      1.5058838780    -2.1281235509     0.6872963066
C     -1.2303814670    -0.0183585691     0.5810013885
H     -1.7563213594    -0.0792158378     1.5420132448
Br    -2.6920092972     0.0608632927    -0.6880180663
15
attempt 3 | |g_proj| = 1.561e-03 | E = -3010.3499860592 Ha
C     -0.4735952339     1.2363893043     0.6013180224
C      0.8803261419     1.2508629510     0.6911498036
C      1.5314677140     0.0169283313     0.7268705638
H     -1.0350566288     2.1596799042     0.5969358164
H      1.4591621045     2.1625484644     0.7130229549
N      3.0197316440     0.0444858483     0.8362402693
O      3.5231797758    -0.9258598670     1.3345396252
O      3.5534900255     1.0410376759     0.4289984139
C     -0.4450513713    -1.2539499500     0.5201826959
H     -0.9836291395    -2.1895734676     0.4374289043
C      0.9088470957    -1.2305405143     0.6562653963
H      1.5060734715    -2.1282299004     0.6873285787
C     -1.2307327304    -0.0186296565     0.5796606940
H     -1.7559433767    -0.0793703195     1.5426170657
Br    -2.6923502237     0.0617416734    -0.6871191629
