15
para_th63_ph180 | OPTIMIZED | |g_proj|=1.870e-03 | E=-3010.3275825974 Ha
C     -0.4696279656     1.2511440160     0.5644301178
C      0.8778046721     1.2510674309     0.7302693382
C      1.5155409121     0.0153890680     0.7702730785
H     -1.0159505812     2.1826001350     0.5006691278
H      1.4532152902     2.1631693245     0.7543359183
N      3.0118548334     0.0288926620     0.8085482785
O      3.5391304378    -1.0299486711     1.0134779339
O      3.5196848678     1.1018689485     0.6306227104
C     -0.4538095570    -1.2484077972     0.5543355510
H     -0.9891460960    -2.1864565960     0.4802322831
C      0.8940724348    -1.2284634380     0.7209490724
H      1.4830800877    -2.1312785618     0.7494198397
C     -1.2301201752    -0.0035592072     0.5575083915
H     -1.7065541421    -0.0095897815     1.5501387315
Br    -2.6632557139    -0.0089070531    -0.7197706862
