15
ortho_th27_ph72 | OPTIMIZED | |g_proj|=5.219e-03 | E=-3010.3429218188 Ha
C     -1.7960122777     1.9450851075     0.7484595207
C     -0.3803524191     1.9893924647     0.7129863376
C      0.2813094439     0.8200419732     0.6978770669
C     -2.5234204560     0.7525992177     0.7798741320
H     -2.3343366339     2.8862950890     0.7715242624
H      0.1550854671     2.9277182920     0.7199456798
H     -3.6026086946     0.7778970717     0.8342614169
N      1.7665110946     0.8062100033     0.7503680136
O      2.2615573840    -0.2355811833     1.1002539074
O      2.3200594451     1.8264260039     0.4461663975
C     -1.8467112657    -0.4283570517     0.7092311539
H     -2.3740286663    -1.3727329712     0.6764014375
C     -0.3814125323    -0.4867611731     0.6111250175
H      0.0313042898    -1.1839264713     1.3430499438
Br     0.0695549358    -1.2398296411    -1.1117963190
