15
attempt 1 | |g_proj| = 2.780e-03 | E = -3010.3373868301 Ha
C     -0.9340829858     2.0040024925     0.7911600096
C      0.4565783089     1.9353715098     0.6519925366
C      1.1438884000     0.7151238252     0.6832916124
C      0.4906520092    -0.4615635473     0.7553697377
C     -1.6395801506     0.8452372022     0.8580441546
H     -1.4273139831     2.9644297297     0.8316691295
H      1.0440485144     2.8383162565     0.5352803312
H      1.0334382771    -1.3989397953     0.7536751005
H     -2.7200151834     0.8540988067     0.9337511670
N      2.6258090050     0.7237504092     0.6172516187
O      3.1778880248    -0.3068842080     0.8934497706
O      3.1267147246     1.7613190124     0.2749207352
C     -0.9823100516    -0.4680328819     0.6904470343
H     -1.4161201974    -1.2297767868     1.3391589710
Br    -1.3714279922    -0.9748530834    -1.1380042566
15
attempt 2 | |g_proj| = 2.686e-03 | E = -3010.3373920261 Ha
C     -0.9343824727     2.0033743619     0.7916086666
C      0.4563930113     1.9349882832     0.6514510429
C      1.1438427853     0.7144565755     0.6834231343
C      0.4902836710    -0.4618569782     0.7549502867
C     -1.6397265666     0.8444948036     0.8579396300
H     -1.4275508604     2.9634392531     0.8321793146
H      1.0437137040     2.8379048530     0.5344491642
H      1.0340514340    -1.3991935466     0.7549699351
H     -2.7200607547     0.8538735353     0.9338356317
N      2.6278079740     0.7241599505     0.6185804745
O      3.1783344904    -0.3071214366     0.8964436335
O      3.1262702233     1.7615739961     0.2708113891
C     -0.9827806553    -0.4673468410     0.6917139585
H     -1.4162302515    -1.2303043920     1.3386476601
Br    -1.3717990111    -0.9708434716    -1.1395462652
15
attempt 3 | |g_proj| = 2.881e-03 | E = -3010.3374005296 Ha
C     -0.9340703198     2.0028433688     0.7916689258
C      0.4564239368     1.9341299918     0.6512855425
C      1.1447005931     0.7145252430     0.6836767252
C      0.4910829009    -0.4619924191     0.7558275115
C     -1.6400441163     0.8446770702     0.8590934482
H     -1.4280326118     2.9626700155     0.8328054286
H      1.0431294891     2.8373042692     0.5332642801
H      1.0340372215    -1.3992540455     0.7564620278
H     -2.7205334652     0.8534408849     0.9339511124
N      2.6264347523     0.7238177767     0.6178676409
O      3.1797825329    -0.3042477231     0.9005272156
O      3.1265195174     1.7590369014     0.2670091512
C     -0.9823852076    -0.4685593914     0.6905590223
H     -1.4167728025    -1.2313875324     1.3379521999
Br    -1.3721056984    -0.9654054593    -1.1404925709
15
attempt 4 | |g_proj| = 2.541e-03 | E = -3010.3374057758 Ha
C     -0.9343943331     2.0023378014     0.7924358267
C      0.4561142651     1.9340865173     0.6509029994
C      1.1441507278     0.7137035667     0.6837478106
C      0.4906257636    -0.4625124100     0.7562744591
C     -1.6397660425     0.8434670771     0.8594927074
H     -1.4281157702     2.9620531791     0.8332828396
H      1.0428690251     2.8370270573     0.5319675778
H      1.0345362314    -1.3997726647     0.7580019625
H     -2.7203166654     0.8530023571     0.9343422652
N      2.6284597791     0.7241192895     0.6183689179
O      3.1800447110    -0.3042128841     0.9051330403
O      3.1257936920     1.7591501137     0.2618085344
C     -0.9825761391    -0.4678226584     0.6919771777
H     -1.4168783603    -1.2323834934     1.3362128965
Br    -1.3723801610    -0.9606438934    -1.1424913495
15
attempt 5 | |g_proj| = 2.896e-03 | E = -3010.3374140363 Ha
C     -0.9339908190     2.0020282067     0.7929457456
C      0.4562234209     1.9332094937     0.6506309893
C      1.1450540943     0.7137970645     0.6839860324
C      0.4916030890    -0.4626592818     0.7572636937
C     -1.6399260495     0.8438558266     0.8610468105
H     -1.4284610889     2.9614741661     0.8339451001
H      1.0422836343     2.8364245598     0.5303071290
H      1.0344391677    -1.4000591462     0.7599247113
H     -2.7204774126     0.8522567321     0.9349771531
N      2.6266449883     0.7238960836     0.6179308975
O      3.1811563950    -0.3007758201     0.9104034888
O      3.1257026655     1.7560167730     0.2565464472
C     -0.9821382744    -0.4690840242     0.6907219534
H     -1.4177249089    -1.2343546095     1.3344478279
Br    -1.3722221770    -0.9544270645    -1.1436203097
15
attempt 6 | |g_proj| = 1.655e-03 | E = -3010.3374184115 Ha
C     -0.9341292333     2.0018966642     0.7932123321
C      0.4560582769     1.9334347034     0.6505155741
C      1.1445134905     0.7134230154     0.6840378962
C      0.4911770439    -0.4628995292     0.7573423227
C     -1.6396580688     0.8431111042     0.8610640497
H     -1.4283934121     2.9614092733     0.8340738448
H      1.0422846909     2.8363908765     0.5299257229
H      1.0346449370    -1.4002248596     0.7603279465
H     -2.7203889423     0.8521845894     0.9352031107
N      2.6278241601     0.7240127964     0.6181032954
O      3.1809989733    -0.3012822639     0.9117972261
O      3.1253472432     1.7565695099     0.2549469484
C     -0.9822508916    -0.4685227270     0.6915617834
H     -1.4176515453    -1.2345412355     1.3337258609
Br    -1.3722099965    -0.9533629532    -1.1443802392
