15
attempt 1 | |g_proj| = 2.473e-03 | E = -3010.3279417322 Ha
C     -0.4665414534     1.2691688888     0.6343523102
C      0.8820360821     1.2710892163     0.6568455174
C      1.5152979711     0.0203963460     0.7292582987
H     -1.0065378544     2.1978461582     0.5659719365
H      1.4689398869     2.1766615611     0.6217902815
N      2.9884424754     0.0004861060     0.6899660408
O      3.4573676167    -0.7657998396    -0.1068654113
O      3.5387596644     0.7589513765     1.4406364147
C     -0.4883961744    -1.2059207447     0.8627037835
H     -1.0408738039    -2.1311119836     0.9540693053
C      0.8684047004    -1.2064468437     0.8304071841
H      1.4379047439    -2.1176460982     0.8749674859
C     -1.2572189380     0.0280534894     0.6674541755
H     -2.1036619574     0.1054072173     1.3532257907
Br    -2.0280036205    -0.2536143698    -1.1093433859
15
attempt 2 | |g_proj| = 8.960e-04 | E = -3010.3281375457 Ha
C     -0.4683992958     1.2699063752     0.6400577264
C      0.8801103976     1.2718025196     0.6784556342
C      1.5121375221     0.0199749216     0.7410931179
H     -1.0134568400     2.1947563949     0.5524803723
H      1.4737080918     2.1732273913     0.6530240476
N      2.9829652993     0.0009239014     0.6669821763
O      3.4301037880    -0.7234381511    -0.1801392511
O      3.5536293849     0.7227107693     1.4373942292
C     -0.4914474581    -1.2064126081     0.8823296395
H     -1.0503624387    -2.1280164649     0.9792032508
C      0.8654442566    -1.2064574071     0.8544971208
H      1.4387046983    -2.1142827911     0.9092068338
C     -1.2551804090     0.0265567658     0.6632212553
H     -2.1208233893     0.1054578070     1.3218195064
Br    -1.9712142650    -0.2591889437    -1.1341859272
