15
ortho_th90_ph90 | OPTIMIZED | |g_proj|=1.050e-03 | E=-3010.3231916116 Ha
C     -1.7735640435     1.9207602048     0.8743874308
C     -0.3745098129     1.9688986413     0.8455296639
C      0.3026206443     0.8131315116     0.6880557083
C     -2.5144178855     0.7380392390     0.7640670967
H     -2.3122773999     2.8477030108     0.9970788640
H      0.1518945362     2.9003947317     0.9592569669
H     -3.5931477483     0.7621230299     0.8026017816
N      1.7681737680     0.8118802408     0.7471806119
O      2.2024684539     0.7128008335     1.8652573365
O      2.3569754705     0.9061868460    -0.2917503906
C     -1.8419455581    -0.4216632874     0.6099478411
H     -2.3728537457    -1.3551739921     0.5207742728
C     -0.3715200880    -0.4825939195     0.5111169354
H      0.0445581839    -1.2207460725     1.1944529252
Br    -0.0259556556    -1.1172642918    -1.2982290810
