15
meta_th36_ph306 | OPTIMIZED | |g_proj|=6.385e-05 | E=-3010.3538962535 Ha
C     -0.9089952444     2.0353601153     0.7081665300
C      0.4882516890     1.9645955137     0.7585693063
C      1.1578095219     0.7412094461     0.6277257462
C      0.4861868690    -0.4192172824     0.4596453114
C     -1.6296885453     0.8874425087     0.5711874639
H     -1.3974709964     2.9949570616     0.7764441247
H      1.0845279827     2.8595333358     0.9014168918
H      1.0199995721    -1.3525602733     0.3366195029
H     -2.7120046031     0.9026281675     0.5543100444
N      2.6412289876     0.7280789989     0.6845866626
O      3.1726264509    -0.2809942310     0.3089204999
O      3.1611839129     1.7294214675     1.1030468818
C     -0.9742124585    -0.4249618345     0.5612827646
H     -1.1511255095    -0.7642390406     1.5967400091
Br    -1.8301508671    -1.7996548553    -0.4772039357
