15
attempt 1 | |g_proj| = 5.925e-04 | E = -3010.3280678578 Ha
C     -0.5055032220     1.2218043943     0.8667098164
C      0.8513088988     1.2342969365     0.8325351047
C      1.5082781569     0.0121155617     0.7362755294
H     -1.0738385209     2.1399923712     0.9391024028
H      1.4163806654     2.1484002602     0.8653814743
N      2.9782796961     0.0446835685     0.6367049113
O      3.5683586468    -0.6757191060     1.3938580281
O      3.4054664109     0.7753261974    -0.2156345882
C     -0.4587300014    -1.2614168238     0.6978455175
H     -0.9955049803    -2.1943443899     0.6525648229
C      0.8903781672    -1.2477957049     0.7165400805
H      1.4938226788    -2.1432100487     0.7103897161
C     -1.2555261359    -0.0242783002     0.6760337657
H     -2.1391327061    -0.0888533542     1.3104070669
Br    -1.9181185117     0.2065189156    -1.1532740397
