15
meta_th27_ph54 | OPTIMIZED | |g_proj|=2.364e-03 | E=-3010.3434750572 Ha
C     -0.9291181402     2.0109800601     0.7803323638
C      0.4648802585     1.9441397574     0.6734005457
C      1.1495830238     0.7203384400     0.6738967828
C      0.4929257445    -0.4567211599     0.7065361815
C     -1.6363036375     0.8514736878     0.8168010010
H     -1.4221007825     2.9718900559     0.8203707655
H      1.0570212553     2.8496704367     0.6014390779
H      1.0333961726    -1.3954545113     0.6814818972
H     -2.7180560555     0.8587977888     0.8696110248
N      2.6341171649     0.7331544570     0.6274222374
O      3.1811537035    -0.3192927713     0.8178356353
O      3.1414692085     1.7971733988     0.3896626234
C     -0.9802144578    -0.4635777111     0.6768573506
H     -1.3789438033    -1.1786514828     1.4008506429
Br    -1.4816429314    -1.1223214898    -1.0650404641
