15
meta_th18_ph36 | OPTIMIZED | |g_proj|=1.912e-03 | E=-3010.3503223522 Ha
C     -0.9247791271     2.0205986128     0.7706763738
C      0.4726487080     1.9549265496     0.7029099875
C      1.1541764288     0.7290017751     0.6630906770
C      0.4940234290    -0.4471080485     0.6418477593
C     -1.6338223345     0.8608397861     0.7556348353
H     -1.4179775303     2.9815517032     0.8181229859
H      1.0696856284     2.8603888390     0.6871737266
H      1.0317624239    -1.3867261904     0.5879449792
H     -2.7166926121     0.8672759740     0.7795226174
N      2.6418301310     0.7396714049     0.6388527628
O      3.1806202330    -0.3317442600     0.7076918622
O      3.1585273477     1.8216785512     0.5450465956
C     -0.9771336063    -0.4535248197     0.6491749014
H     -1.3218889410    -1.0899149171     1.4707508327
Br    -1.6028134598    -1.3253160228    -0.9469832495
