15
meta_th36_ph270 | OPTIMIZED | |g_proj|=1.425e-03 | E=-3010.3544504259 Ha
C     -0.9104925393     2.0312308449     0.7064701570
C      0.4832442438     1.9534504152     0.7978373139
C      1.1571783521     0.7380867551     0.6358516827
C      0.4887062595    -0.4216888895     0.4403938739
C     -1.6316158131     0.8887654504     0.5231460290
H     -1.4011647252     2.9903646956     0.7751595909
H      1.0776438329     2.8401802707     0.9854027199
H      1.0245181974    -1.3545263599     0.3157789833
H     -2.7136810064     0.9084326920     0.4704824194
N      2.6430792518     0.7306630353     0.6703855737
O      3.1768867781    -0.2608768661     0.2522812192
O      3.1637543407     1.7158790323     1.1233726362
C     -0.9731180925    -0.4233949774     0.5481126220
H     -1.1126031824    -0.6909121031     1.6092552802
Br    -1.8641691380    -1.8440549067    -0.3824723065
