15
attempt 1 | |g_proj| = 3.823e-03 | E = -3010.3262997680 Ha
C     -1.7837747781     1.9495440018     0.6290819880
C     -0.3587489040     1.9773862023     0.6492916897
C      0.3057358578     0.8168406031     0.6728404055
C     -2.4992508665     0.7693294700     0.6933578846
H     -2.3171401793     2.8920429474     0.5867620845
H      0.1581903464     2.9190745900     0.6882407780
H     -3.5744141680     0.7911676802     0.7066354509
N      1.7795447679     0.8296813385     0.7591091724
O      2.3573455098    -0.0781072544     0.2174374096
O      2.2413717846     1.7377281909     1.3927897774
C     -1.8096778158    -0.4069215317     0.8039776020
H     -2.3249516654    -1.3416634231     0.9427675379
C     -0.3548685306    -0.4911244725     0.6978595713
H      0.1042327939    -1.1876429595     1.3986037146
Br    -0.2770950652    -1.3928586200    -1.0490270650
15
attempt 2 | |g_proj| = 3.352e-04 | E = -3010.3265367305 Ha
C     -1.7832783889     1.9480454186     0.6181874542
C     -0.3580806147     1.9765935390     0.6344097517
C      0.3056303833     0.8158913473     0.6803478073
C     -2.4964433669     0.7673528347     0.7126461916
H     -2.3182804012     2.8895535053     0.5572085914
H      0.1650247470     2.9160306208     0.6514659583
H     -3.5716633052     0.7893701410     0.7318566343
N      1.7780014817     0.8288195066     0.7767412146
O      2.3614093886    -0.0672802632     0.2237481007
O      2.2317844916     1.7268027729     1.4285225368
C     -1.8078285108    -0.4101828081     0.8181900475
H     -2.3282551666    -1.3439153035     0.9496780135
C     -0.3530306000    -0.4926828182     0.7000442475
H      0.1196523044    -1.2030844901     1.3764284785
Br    -0.2981433589    -1.3568372355    -1.0697470219
