15
ortho_th18_ph342 | OPTIMIZED | |g_proj|=4.125e-04 | E=-3010.3530534276 Ha
C     -1.7944539766     1.9564325987     0.7593355979
C     -0.3772013861     1.9936041911     0.7141812868
C      0.2844825734     0.8263020224     0.6434263677
C     -2.5236921921     0.7682653352     0.7475602791
H     -2.3258362099     2.8996455978     0.8209526511
H      0.1629432987     2.9297825510     0.7525248332
H     -3.6031870833     0.7908679055     0.7904141257
N      1.7728116948     0.8317306503     0.7169590437
O      2.2931906712    -0.2510116886     0.7918458862
O      2.3051788736     1.9080887105     0.6974458945
C     -1.8487376913    -0.4169447910     0.6702538623
H     -2.3788834047    -1.3617011415     0.6527859985
C     -0.3838559458    -0.4815585164     0.6121424355
H      0.0009916540    -1.1168000442     1.4079244858
Br     0.0627481610    -1.4922265569    -0.9880246868
