15
attempt 1 | |g_proj| = 1.289e-03 | E = -3010.3296495613 Ha
C     -1.7822244636     1.9430532212     0.6936833237
C     -0.3591557266     1.9839445238     0.7125376237
C      0.2929079949     0.8187567962     0.7098921124
C     -2.5001434377     0.7566059831     0.7209503619
H     -2.3144575470     2.8858285039     0.6721372088
H      0.1696328330     2.9237588095     0.7464007144
H     -3.5747803787     0.7740712957     0.7340600545
N      1.7755986386     0.8240743084     0.7732564458
O      2.2909406252    -0.2572512245     0.8950266190
O      2.2982419424     1.9027212885     0.7355392190
C     -1.8220956873    -0.4294603991     0.7649346182
H     -2.3442374292    -1.3762977427     0.8093564854
C     -0.3630845824    -0.4928580202     0.6530881826
H      0.1034946610    -1.2202121069     1.3172666606
Br    -0.2241383356    -1.2522584962    -1.1484016519
