15
meta_th45_ph36 | OPTIMIZED | |g_proj|=1.568e-03 | E=-3010.3328358954 Ha
C     -0.9358541623     2.0041563852     0.8018655783
C      0.4531098831     1.9329919099     0.6490634981
C      1.1390361341     0.7137641937     0.6900667403
C      0.4886288563    -0.4639547642     0.7769422974
C     -1.6378261487     0.8445275525     0.8742937155
H     -1.4291515197     2.9647532297     0.8364259656
H      1.0376801176     2.8344232437     0.5128770727
H      1.0294470546    -1.4029119174     0.7878835373
H     -2.7165600376     0.8504780321     0.9498359857
N      2.6201677387     0.7197911203     0.6113383316
O      3.1711545788    -0.3035875204     0.9155422408
O      3.1139348581     1.7427232665     0.2182482217
C     -0.9824462859    -0.4676170388     0.7014329176
H     -1.4344452858    -1.2507579341     1.3088552002
Br    -1.3087090612    -0.9171808171    -1.1632136508
