15
attempt 1 | |g_proj| = 5.663e-03 | E = -3010.3374786547 Ha
C     -0.4697928282     1.2366669154     0.6567474112
C      0.8796125206     1.2562404363     0.7496927267
C      1.5214954630     0.0178566766     0.7615222277
H     -1.0232970034     2.1611848882     0.6476745754
H      1.4524590625     2.1728814496     0.7585520733
N      3.0052303010     0.0309305682     0.7819599415
O      3.5256475133    -0.9096784012     1.3167856505
O      3.5141235391     0.9836809376     0.2555833618
C     -0.4500297609    -1.2530703393     0.5613888997
H     -0.9770463787    -2.1930110978     0.4657273475
C      0.9010718749    -1.2271514054     0.6999713788
H      1.4936950072    -2.1270547269     0.7170235106
C     -1.2346378064    -0.0148141788     0.6015445422
H     -1.8282088492    -0.0714737527     1.5188617188
Br    -2.5444033832     0.0843325080    -0.8275957198
15
attempt 2 | |g_proj| = 2.131e-03 | E = -3010.3375716886 Ha
C     -0.4709963953     1.2393921383     0.6513176795
C      0.8796361318     1.2537223462     0.7419574075
C      1.5244554872     0.0155006140     0.7452831116
H     -1.0320023155     2.1620409568     0.6413834579
H      1.4575830025     2.1657902390     0.7644345132
N      3.0142578706     0.0337860799     0.7778821747
O      3.5273340943    -0.9031870955     1.3259647981
O      3.5342141067     0.9897835126     0.2692383423
C     -0.4527156487    -1.2553546820     0.5554573572
H     -0.9908765453    -2.1918995147     0.4644568756
C      0.8999700002    -1.2297691769     0.6938712784
H      1.4957016770    -2.1267843019     0.7210687556
C     -1.2332118897    -0.0144346235     0.6041958546
H     -1.8324208310    -0.0751286026     1.5182457923
Br    -2.5550094697     0.0840625882    -0.8093177480
15
attempt 3 | |g_proj| = 2.139e-03 | E = -3010.3375902309 Ha
C     -0.4698017760     1.2369828758     0.6494296562
C      0.8807459295     1.2537288461     0.7393020951
C      1.5256572782     0.0159564829     0.7454796358
H     -1.0286579870     2.1595407438     0.6416433132
H      1.4581755683     2.1667755390     0.7618423108
N      3.0125089770     0.0341020414     0.7816060264
O      3.5253784855    -0.9040341042     1.3279654657
O      3.5314928565     0.9908560823     0.2735456284
C     -0.4510967725    -1.2537554933     0.5543676664
H     -0.9890710299    -2.1894822308     0.4661415992
C      0.9016447807    -1.2289448386     0.6901873837
H      1.4944438975    -2.1281148538     0.7187456645
C     -1.2343113397    -0.0150266648     0.6024162527
H     -1.8281476124    -0.0749922086     1.5210124859
Br    -2.5630419769     0.0839282609    -0.8082455289
15
attempt 4 | |g_proj| = 1.535e-03 | E = -3010.3375936116 Ha
C     -0.4697890494     1.2378550283     0.6482612552
C      0.8806891437     1.2535207077     0.7390080290
C      1.5249828322     0.0155242535     0.7447231986
H     -1.0290153853     2.1604997421     0.6412984207
H      1.4577157778     2.1663082198     0.7610531475
N      3.0131650867     0.0340674563     0.7819747705
O      3.5254606195    -0.9040371482     1.3290744855
O      3.5324752819     0.9914968986     0.2752959525
C     -0.4518790564    -1.2540605955     0.5528757439
H     -0.9890411153    -2.1905657577     0.4662984110
C      0.9007304624    -1.2293208023     0.6901988400
H      1.4944236891    -2.1277611919     0.7177696456
C     -1.2338314890    -0.0145608587     0.6020144565
H     -1.8266546120    -0.0750179727     1.5207215354
Br    -2.5635129032     0.0835724990    -0.8051282321
