15
attempt 1 | |g_proj| = 1.503e-03 | E = -3010.3271558036 Ha
C     -0.9394683086     2.0081158175     0.7957781968
C      0.4521615673     1.9384542222     0.6541888253
C      1.1342389431     0.7200762062     0.6940196072
C      0.4843418938    -0.4584542368     0.7806714469
C     -1.6354811374     0.8487823083     0.8653394509
H     -1.4294555116     2.9696371524     0.8307898471
H      1.0338782750     2.8418317735     0.5275675423
H      1.0260205332    -1.3964292151     0.7930908614
H     -2.7103826642     0.8613296407     0.9574535946
N      2.6136191103     0.7146727833     0.6035847434
O      3.1517186190    -0.3302685915     0.8514684722
O      3.1129857879     1.7497737225     0.2549213141
C     -0.9828262326    -0.4645000732     0.7086778869
H     -1.4369265007    -1.2420921921     1.3191069136
Br    -1.2662576606    -0.9593303995    -1.1652010733
