15
para_th9_ph288 | OPTIMIZED | |g_proj|=8.103e-04 | E=-3010.3546051429 Ha
C     -0.4776060353     1.2441463017     0.4910877247
C      0.8782403771     1.2560575189     0.6264645398
C      1.5299946170     0.0254303504     0.7159265468
H     -1.0400686745     2.1668174106     0.4175947489
H      1.4530340637     2.1708584312     0.6620655416
N      3.0221895626     0.0441856675     0.8981247329
O      3.5678323615    -1.0258250856     0.8664012337
O      3.5196207168     1.1267327380     1.0545446957
C     -0.4451068290    -1.2498115720     0.5248547486
H     -0.9822662222    -2.1894116893     0.4768462199
C      0.9112864559    -1.2224731684     0.6514995630
H      1.5110715334    -2.1204831783     0.6960709730
C     -1.2281586764    -0.0128595756     0.5335340038
H     -1.6225971970     0.0048606459     1.5672046681
Br    -2.8315467628    -0.0707043159    -0.5167802722
