15
attempt 1 | |g_proj| = 5.629e-03 | E = -3010.3323255244 Ha
C     -0.4672251993     1.2505620414     0.5253969911
C      0.8843968270     1.2496312537     0.6007067508
C      1.5207208423     0.0090146226     0.6911341579
H     -1.0163744761     2.1783498506     0.4247405744
H      1.4612739373     2.1614104570     0.6045911960
N      3.0037002356     0.0299381839     0.8457427039
O      3.5860546029    -0.9771652839     0.5463950205
O      3.4510191622     1.0671559151     1.2549623685
C     -0.4591355073    -1.2497947850     0.6429838843
H     -1.0012976218    -2.1878445699     0.6566009093
C      0.8985864737    -1.2360617637     0.6917930116
H      1.4909245301    -2.1379757273     0.7370336360
C     -1.2310722993    -0.0002819539     0.5875978327
H     -1.7330435665     0.0501236439     1.5720061665
Br    -2.6226085905    -0.0595414054    -0.7162454618
15
attempt 2 | |g_proj| = 5.578e-03 | E = -3010.3326575608 Ha
C     -0.4690865007     1.2533509784     0.5451885384
C      0.8860039160     1.2582794681     0.6107804284
C      1.5253832910     0.0192692988     0.7022072472
H     -1.0244068318     2.1782009952     0.4662283462
H      1.4747211392     2.1640247579     0.6041783532
N      3.0176905166     0.0295733075     0.8409588835
O      3.5758539241    -0.9983729055     0.5658472186
O      3.4946402813     1.0717937054     1.2012214970
C     -0.4614584677    -1.2430782133     0.6522094026
H     -1.0116294458    -2.1771138905     0.6488891199
C      0.8965366013    -1.2235495905     0.6950936558
H      1.4844675284    -2.1260399622     0.7322710588
C     -1.2363316439     0.0007491816     0.5956729614
H     -1.7879656138     0.0447850967     1.5510508095
Br    -2.5984993401    -0.1043517484    -0.7463577743
15
attempt 3 | |g_proj| = 4.255e-03 | E = -3010.3327056527 Ha
C     -0.4689267359     1.2523188571     0.5487825397
C      0.8866008199     1.2554854377     0.6112188746
C      1.5237901173     0.0171367290     0.6989697983
H     -1.0214775942     2.1787850030     0.4685801587
H      1.4679480908     2.1664991467     0.6090275223
N      3.0123123551     0.0297939030     0.8362602515
O      3.5703137579    -0.9993018020     0.5695205710
O      3.4907211230     1.0723692640     1.1913525665
C     -0.4611987062    -1.2420773530     0.6492886792
H     -1.0055515770    -2.1779824538     0.6534199446
C      0.8966093237    -1.2266251159     0.6975918711
H      1.4886007327    -2.1290521871     0.7343397172
C     -1.2407365946     0.0015083246     0.5952790122
H     -1.7888329416     0.0470277858     1.5557994635
Br    -2.5842528132    -0.0983650596    -0.7539912197
15
attempt 4 | |g_proj| = 2.406e-03 | E = -3010.3327197791 Ha
C     -0.4694494042     1.2525299863     0.5491083341
C      0.8851498377     1.2562783883     0.6117049741
C      1.5233227704     0.0176561317     0.6992353704
H     -1.0212968967     2.1790648003     0.4697610165
H      1.4674527323     2.1659408905     0.6098772359
N      3.0129629243     0.0294056716     0.8359756197
O      3.5701947500    -1.0009645379     0.5697195257
O      3.4902162134     1.0736040212     1.1885287004
C     -0.4606701266    -1.2431378899     0.6520680490
H     -1.0060965054    -2.1788896473     0.6537424992
C      0.8969019099    -1.2262258800     0.6962530593
H      1.4877119708    -2.1283212074     0.7349379196
C     -1.2382102018     0.0010224147     0.5975747001
H     -1.7892505396     0.0466857726     1.5546882308
Br    -2.5830200733    -0.0971284352    -0.7577354795
