15
attempt 1 | |g_proj| = 1.907e-03 | E = -3010.3214932970 Ha
C     -1.7710923459     1.9116393703     0.7488419787
C     -0.3678708504     1.9688938239     0.7444900757
C      0.3030017860     0.8039849512     0.7402120565
C     -2.5045465471     0.7243928700     0.7877635013
H     -2.3129467253     2.8442711044     0.7377116354
H      0.1627137565     2.9078147468     0.7622526603
H     -3.5835122344     0.7459626487     0.8280750019
N      1.7692368977     0.7962719984     0.8173196756
O      2.2052589357     0.1392494877     1.7282505929
O      2.3601461385     1.4483622065     0.0031187146
C     -1.8313314816    -0.4514736316     0.7454536561
H     -2.3608204198    -1.3923512093     0.7117871879
C     -0.3650547120    -0.4954247199     0.5857153191
H      0.1160215445    -1.2774089253     1.1687893421
Br    -0.1727046196    -0.8897079998    -1.3200534386
