15
attempt 1 | |g_proj| = 4.136e-03 | E = -3010.3418175482 Ha
C     -0.4730809742     1.2489328951     0.4722036480
C      0.8743719872     1.2495661988     0.6714477864
C      1.5183898436     0.0193438906     0.7671178158
H     -1.0203971552     2.1789434599     0.3813877825
H      1.4488744761     2.1623659065     0.6965764183
N      3.0147131125     0.0337628040     0.8854236664
O      3.5354273598    -1.0457478786     0.9674779444
O      3.5311051480     1.1183371249     0.8883519148
C     -0.4482899470    -1.2457821988     0.5020052232
H     -0.9821610821    -2.1833204754     0.4185532612
C      0.9009483204    -1.2261072356     0.6877965664
H      1.4940465853    -2.1286273633     0.7227822303
C     -1.2276879656    -0.0051401837     0.5221868524
H     -1.5511470867     0.0166180494     1.5796638462
Br    -2.8491933238    -0.0456245151    -0.4975352794
15
attempt 2 | |g_proj| = 1.192e-03 | E = -3010.3418914403 Ha
C     -0.4710803382     1.2477115261     0.4701950446
C      0.8785329169     1.2516130760     0.6536934058
C      1.5196208657     0.0193128885     0.7456639207
H     -1.0243289794     2.1740286490     0.3820318982
H      1.4553841415     2.1637426931     0.6898418294
N      3.0140198617     0.0348306859     0.8875749919
O      3.5403836392    -1.0407327376     0.9777096465
O      3.5256248844     1.1209747709     0.9111570952
C     -0.4497647921    -1.2484786668     0.4941831792
H     -0.9879878634    -2.1855655187     0.4281587291
C      0.9002286149    -1.2257824170     0.6748225864
H      1.4912461144    -2.1280470615     0.7288786281
C     -1.2256097140    -0.0064452736     0.5233948348
H     -1.5461876913    -0.0019177639     1.5818132226
Br    -2.8541623583    -0.0277243715    -0.4836793311
