15
attempt 1 | |g_proj| = 2.551e-04 | E = -3010.3533870706 Ha
C     -0.4827618695     1.2407017782     0.5532519683
C      0.8744992739     1.2540583564     0.6570298001
C      1.5293897194     0.0237330678     0.7150656794
H     -1.0477034176     2.1640807873     0.5088364217
H      1.4487272729     2.1689518134     0.6898924904
N      3.0249812499     0.0494530093     0.8642305696
O      3.5567447147    -1.0169288822     1.0182831811
O      3.5384510208     1.1344062689     0.8105475087
C     -0.4437758064    -1.2547496330     0.5415354509
H     -0.9804565853    -2.1941469372     0.4886984336
C      0.9128864270    -1.2270619217     0.6522873130
H      1.5146674914    -2.1241703467     0.6896313936
C     -1.2320076890    -0.0186916842     0.5574143906
H     -1.7102565211    -0.0381518201     1.5520225041
Br    -2.7374660386    -0.0139633781    -0.6332874964
