15
para_th90_ph36 | OPTIMIZED | |g_proj|=1.197e-03 | E=-3010.3192424876 Ha
C     -0.5052353575     1.2301373755     0.9058289422
C      0.8514095373     1.2369259159     0.9227177628
C      1.5050976447     0.0188182120     0.7770454198
H     -1.0713168994     2.1499351628     0.9883539905
H      1.4080328509     2.1537279925     0.9991881935
N      2.9615310537     0.0357314386     0.6096935905
O      3.6040400763    -0.4123423381     1.5174027686
O      3.3123637701     0.4606949131    -0.4571873267
C     -0.4517785286    -1.2531148914     0.6652171757
H     -0.9828954874    -2.1852607446     0.5695963189
C      0.8938134183    -1.2400942253     0.7185676605
H      1.4944887621    -2.1365123428     0.6675584086
C     -1.2465017089    -0.0149298658     0.6755268150
H     -2.1405457663    -0.0890009595     1.2859215268
Br    -1.8665841225     0.1928048349    -1.1799916382
