15
para_th90_ph54 | OPTIMIZED | |g_proj|=1.121e-03 | E=-3010.3270601325 Ha
C     -0.4865591586     1.2351118277     0.8728287920
C      0.8687773778     1.2358692229     0.8943417194
C      1.5256450945     0.0190395843     0.7114785087
H     -1.0488998122     2.1519335547     0.9955563235
H      1.4340734420     2.1391340112     1.0326696841
N      2.9897210555     0.0228098660     0.7026676158
O      3.4946186714     0.1302128342     1.7851553200
O      3.4911849817    -0.1151580067    -0.3781510555
C     -0.4448294370    -1.2341306828     0.5510113976
H     -0.9838055178    -2.1584010342     0.4362123023
C      0.9017629121    -1.2273804558     0.5441555114
H      1.4969738689    -2.1185055203     0.4087097406
C     -1.2441202536    -0.0067227463     0.6776840508
H     -2.0160921175    -0.1066798531     1.4414657392
Br    -2.2125318569     0.1803878763    -1.0103460323
