15
ortho_th54_ph288 | OPTIMIZED | |g_proj|=3.522e-03 | E=-3010.3323684421 Ha
C     -1.7702374856     1.9519318985     0.6776817886
C     -0.3570092916     1.9806258077     0.6979721678
C      0.3063482853     0.8145125081     0.6541760667
C     -2.5120510784     0.7793252075     0.6625152271
H     -2.2944755110     2.8961636430     0.6900642745
H      0.1813819297     2.9162049825     0.7472043629
H     -3.5906872063     0.8026302726     0.6363265512
N      1.7870666918     0.8483445925     0.7051707129
O      2.3531023106     0.0329123986     0.0277499386
O      2.2717178355     1.7028612868     1.3977348179
C     -1.8470931036    -0.4100268972     0.7334308386
H     -2.3874575937    -1.3426807507     0.8258071110
C     -0.3802942202    -0.4906112241     0.6999267313
H      0.0089115160    -1.0861638722     1.5191400774
Br    -0.1227240355    -1.6115530390    -0.8851726158
