15
attempt 1 | |g_proj| = 4.614e-04 | E = -3010.3577103104 Ha
C     -0.4798297760     1.2418025967     0.5080319298
C      0.8760877389     1.2541999620     0.6445012446
C      1.5296799378     0.0245506377     0.7212296410
H     -1.0435610007     2.1651026018     0.4512831631
H      1.4508526462     2.1689222265     0.6813698045
N      3.0231489336     0.0480534473     0.8935202735
O      3.5541484480    -1.0217214712     1.0262850220
O      3.5360050346     1.1347244194     0.8845005402
C     -0.4425130653    -1.2527924116     0.5040556869
H     -0.9788583977    -2.1919315582     0.4419307382
C      0.9128361328    -1.2243214984     0.6450116241
H      1.5133476490    -2.1219123362     0.6872093569
C     -1.2270585257    -0.0170395844     0.5331951386
H     -1.6238341229    -0.0290543996     1.5630901628
Br    -2.8345323715    -0.0310621534    -0.5197746945
