15
para_th18_ph324 | OPTIMIZED | |g_proj|=1.980e-03 | E=-3010.3479325751 Ha
C     -0.4737091199     1.2458320639     0.4853822049
C      0.8816698414     1.2567183679     0.6126322475
C      1.5296687006     0.0246072022     0.7104751412
H     -1.0323172471     2.1687752811     0.3969764423
H      1.4574515035     2.1710137638     0.6419609046
N      3.0188761710     0.0390337372     0.8952327175
O      3.5759664440    -1.0139995447     0.7379127023
O      3.5013460859     1.1031517275     1.1738328246
C     -0.4488254796    -1.2472656284     0.5546672327
H     -0.9882286508    -2.1859778285     0.5197180254
C      0.9081526491    -1.2216370937     0.6615015749
H      1.5052573955    -2.1204530884     0.7074797478
C     -1.2292640730    -0.0087074224     0.5406234913
H     -1.6376739109     0.0317730246     1.5704180410
Br    -2.8024510017    -0.0953440841    -0.5433736061
