15
attempt 1 | |g_proj| = 1.628e-03 | E = -3010.3575454689 Ha
C     -0.9114203091     2.0299441730     0.7411211663
C      0.4844681544     1.9560300427     0.7958742345
C      1.1575453115     0.7356223275     0.6595873300
C      0.4924416003    -0.4316781870     0.5010771237
C     -1.6263539522     0.8832819446     0.5772897266
H     -1.3996302826     2.9906976804     0.8151896045
H      1.0835318539     2.8502578351     0.9278266953
H      1.0251785171    -1.3700992675     0.4024488357
H     -2.7077483710     0.9032031317     0.5356672958
N      2.6452576691     0.7454580169     0.6486725805
O      3.1758803105    -0.3167287842     0.4693985416
O      3.1670809864     1.8124540226     0.8395002237
C     -0.9726836434    -0.4318807323     0.5688193567
H     -1.1765001873    -0.8340224629     1.5714635492
Br    -1.8288809243    -1.7209407475    -0.5824785626
