15
attempt 1 | |g_proj| = 3.513e-03 | E = -3010.3442577472 Ha
C     -0.9269997512     2.0129613246     0.7833298663
C      0.4662998690     1.9457602921     0.6777162653
C      1.1492608749     0.7207245383     0.6719914432
C      0.4943931191    -0.4581000983     0.7037340190
C     -1.6320112765     0.8513747215     0.8186421331
H     -1.4202975546     2.9742317514     0.8131181723
H      1.0594258398     2.8506298692     0.6064983537
H      1.0298119332    -1.4003333736     0.6777806249
H     -2.7133514804     0.8538684170     0.8596889643
N      2.6342105391     0.7367744072     0.6277710927
O      3.1797869861    -0.3167454812     0.8166240794
O      3.1411622980     1.8017788876     0.3920795134
C     -0.9788209868    -0.4643346063     0.6790507640
H     -1.3804802733    -1.1818640937     1.3996097527
Br    -1.4942234179    -1.1251276183    -1.0561773965
15
attempt 2 | |g_proj| = 2.551e-03 | E = -3010.3442796301 Ha
C     -0.9285729274     2.0117721262     0.7814115675
C      0.4653812353     1.9445929892     0.6741224192
C      1.1494767529     0.7197457738     0.6737122938
C      0.4927872125    -0.4572534247     0.7037631550
C     -1.6351916037     0.8515528587     0.8161794290
H     -1.4214549066     2.9727319954     0.8178863626
H      1.0580444221     2.8500289395     0.6041788116
H      1.0330133540    -1.3968419549     0.6797033135
H     -2.7166172853     0.8575867961     0.8660516127
N      2.6351022011     0.7343300010     0.6294451180
O      3.1808069204    -0.3194453067     0.8155150411
O      3.1405485030     1.7996242384     0.3912600996
C     -0.9801453305    -0.4623329776     0.6794720835
H     -1.3786416785    -1.1789347915     1.4011824863
Br    -1.4863701497    -1.1255583207    -1.0624261411
15
attempt 3 | |g_proj| = 2.055e-03 | E = -3010.3442881132 Ha
C     -0.9287496205     2.0118870418     0.7806453753
C      0.4650802070     1.9446953981     0.6739287529
C      1.1491930183     0.7205982858     0.6734699283
C      0.4930268849    -0.4567177221     0.7047574366
C     -1.6355740772     0.8518993119     0.8169536255
H     -1.4218031509     2.9726515199     0.8193731365
H      1.0572484568     2.8497859581     0.6026318568
H      1.0330751319    -1.3963001633     0.6805539945
H     -2.7172577174     0.8583681909     0.8681986893
N      2.6345757016     0.7337259402     0.6287095477
O      3.1803907160    -0.3201100004     0.8154840611
O      3.1411408392     1.7984426101     0.3914302610
C     -0.9805615324    -0.4634676275     0.6768208760
H     -1.3792037776    -1.1786621220     1.4011391919
Br    -1.4824143589    -1.1251976746    -1.0626390767
15
attempt 4 | |g_proj| = 1.617e-03 | E = -3010.3442887036 Ha
C     -0.9288891725     2.0118478197     0.7807173670
C      0.4650078811     1.9447408068     0.6737588742
C      1.1492033190     0.7204585544     0.6734883240
C      0.4928722701    -0.4567039643     0.7047452828
C     -1.6356075654     0.8517472934     0.8168574680
H     -1.4218452553     2.9726602140     0.8195627520
H      1.0572110494     2.8498812130     0.6024210135
H      1.0331277241    -1.3962133654     0.6806971555
H     -2.7172605157     0.8584664216     0.8685137766
N      2.6346626698     0.7335806849     0.6287704966
O      3.1801961871    -0.3202080317     0.8154365965
O      3.1412196245     1.7984264907     0.3913689377
C     -0.9805380631    -0.4632069257     0.6772612657
H     -1.3792193902    -1.1785630889     1.4009449548
Br    -1.4819740408    -1.1253151708    -1.0630866037
