15
meta_th27_ph36 | OPTIMIZED | |g_proj|=1.617e-03 | E=-3010.3442887036 Ha
C     -0.9288891725     2.0118478197     0.7807173670
C      0.4650078811     1.9447408068     0.6737588742
C      1.1492033190     0.7204585544     0.6734883240
C      0.4928722701    -0.4567039643     0.7047452828
C     -1.6356075654     0.8517472934     0.8168574680
H     -1.4218452553     2.9726602140     0.8195627520
H      1.0572110494     2.8498812130     0.6024210135
H      1.0331277241    -1.3962133654     0.6806971555
H     -2.7172605157     0.8584664216     0.8685137766
N      2.6346626698     0.7335806849     0.6287704966
O      3.1801961871    -0.3202080317     0.8154365965
O      3.1412196245     1.7984264907     0.3913689377
C     -0.9805380631    -0.4632069257     0.6772612657
H     -1.3792193902    -1.1785630889     1.4009449548
Br    -1.4819740408    -1.1253151708    -1.0630866037
