15
attempt 1 | |g_proj| = 2.352e-03 | E = -3010.3223563600 Ha
C     -0.4753059878     1.2723811057     0.6900294903
C      0.8752440559     1.2695695542     0.6894827365
C      1.4995071735     0.0177387251     0.7333293173
H     -1.0169721337     2.2030536432     0.6329154928
H      1.4648952165     2.1741740634     0.6487145965
N      2.9783802608     0.0021465294     0.6525629180
O      3.4365700071    -0.8634364379    -0.0430704815
O      3.5428478087     0.8653527590     1.2678866505
C     -0.4987614054    -1.2163497312     0.8866456370
H     -1.0526240990    -2.1436859296     0.9767997863
C      0.8588806135    -1.2112060432     0.8446101479
H      1.4297340018    -2.1231282245     0.8772566737
C     -1.2586152402     0.0238209317     0.6804332331
H     -2.1539536251     0.0814680190     1.2965647389
Br    -1.8639073002    -0.2043784840    -1.1687212003
15
attempt 2 | |g_proj| = 1.479e-03 | E = -3010.3223847847 Ha
C     -0.4770196107     1.2748907211     0.6886548022
C      0.8733529282     1.2730128954     0.6982212761
C      1.4965629474     0.0200872752     0.7329928843
H     -1.0227861796     2.2032655517     0.6277465602
H      1.4675435843     2.1753248044     0.6805830066
N      2.9738164595    -0.0008974730     0.6434414248
O      3.4244505620    -0.8734288778    -0.0484306150
O      3.5451565225     0.8640768896     1.2494156708
C     -0.4986828025    -1.2148191672     0.8873360558
H     -1.0541979351    -2.1413479016     0.9734726027
C      0.8590481796    -1.2087174555     0.8465654172
H      1.4370713401    -2.1155222536     0.8868885390
C     -1.2579272551     0.0248311045     0.6771571714
H     -2.1520662314     0.0861192906     1.2955473925
Br    -1.8484031592    -0.2193549235    -1.1741524469
