15
para_th63_ph36 | OPTIMIZED | |g_proj|=3.259e-04 | E=-3010.3223373778 Ha
C     -0.5142919679     1.2281608987     0.8749855795
C      0.8435170715     1.2351086845     0.8346595528
C      1.4943146959     0.0118687645     0.7423980244
H     -1.0777064208     2.1513411661     0.9361717896
H      1.4100905455     2.1494954016     0.8493075714
N      2.9700128726     0.0467794894     0.6070587885
O      3.5707450674    -0.8279824317     1.1685650865
O      3.3891286085     0.9364459853    -0.0833074493
C     -0.4670376868    -1.2630261409     0.7483435076
H     -1.0017126496    -2.1990614291     0.7179015288
C      0.8837719851    -1.2467310348     0.7576083551
H      1.4852431857    -2.1439085195     0.7652488345
C     -1.2591821210    -0.0223489032     0.6815728013
H     -2.1763660297    -0.0718131171     1.2640552179
Br    -1.7846079177     0.1631916637    -1.1991295845
