15
ortho_th18_ph72 | OPTIMIZED | |g_proj|=2.949e-03 | E=-3010.3470612365 Ha
C     -1.7953204543     1.9469961071     0.7437679896
C     -0.3796498374     1.9901940701     0.7096165718
C      0.2840880109     0.8215114540     0.6865728490
C     -2.5234565290     0.7555218082     0.7709890388
H     -2.3332184398     2.8886109246     0.7689950488
H      0.1575152962     2.9282138874     0.7247463265
H     -3.6029980814     0.7790660787     0.8218421653
N      1.7708183791     0.8141659542     0.7440200990
O      2.2762840746    -0.2500109339     0.9968634721
O      2.3165732256     1.8647513487     0.5444118612
C     -1.8472050717    -0.4266290456     0.7079787485
H     -2.3745135997    -1.3721296697     0.6841706040
C     -0.3809619346    -0.4861514743     0.6123408878
H      0.0315809606    -1.1698190441     1.3583741101
Br     0.0469631008    -1.2998147155    -1.0849617859
