15
attempt 1 | |g_proj| = 2.738e-03 | E = -3010.3396761720 Ha
C     -0.9158606272     2.0349582477     0.7363764135
C      0.4834950506     1.9740897190     0.6891460914
C      1.1495532067     0.7417540726     0.6501673295
C      0.4791772221    -0.4258215959     0.6196594790
C     -1.6270606187     0.8790666847     0.7126147033
H     -1.3987883560     2.9970762809     0.7878043150
H      1.0769999967     2.8822838935     0.6982526445
H      1.0164901430    -1.3614254096     0.5596271912
H     -2.7051366364     0.8965743095     0.7539039968
N      2.6308528513     0.7154994123     0.6558527267
O      3.1250144451    -0.3632974283     0.4762693110
O      3.1802333901     1.7713653742     0.8266756597
C     -0.9839011656    -0.4392450518     0.6470800611
H     -1.3185887352    -1.0085572100     1.5235490454
Br    -1.5843134187    -1.4927222523    -0.8655212128
