15
ortho_th27_ph180 | OPTIMIZED | |g_proj|=6.645e-04 | E=-3010.3438381609 Ha
C     -1.7881328419     1.9433086652     0.7019380276
C     -0.3693372907     1.9860810948     0.7148658560
C      0.2948060678     0.8204655232     0.7010111567
C     -2.5120384120     0.7539368180     0.7289169707
H     -2.3246157830     2.8853671571     0.6857501831
H      0.1634794904     2.9258792365     0.7497206302
H     -3.5907766323     0.7724181930     0.7445184675
N      1.7825680790     0.8306747117     0.7563876402
O      2.3095335848    -0.2501642820     0.8284453219
O      2.3048232781     1.9117450977     0.7572925523
C     -1.8314304551    -0.4287176091     0.7540931006
H     -2.3554258305    -1.3759928478     0.7846104796
C     -0.3672733584    -0.4900426486     0.6435120617
H      0.0908008717    -1.1912074280     1.3419087559
Br    -0.1604816776    -1.3092749224    -1.1032432079
