15
attempt 1 | |g_proj| = 1.066e-03 | E = -3010.3588323199 Ha
C     -0.9146249716     2.0320280904     0.7219902592
C      0.4798836894     1.9546579326     0.8038842763
C      1.1554234422     0.7392560529     0.6454768812
C      0.4925590237    -0.4257040829     0.4553569141
C     -1.6298059664     0.8864396676     0.5390210926
H     -1.4062474541     2.9923485097     0.7911340666
H      1.0737769306     2.8451517049     0.9744705934
H      1.0298884784    -1.3595843302     0.3337257837
H     -2.7113502075     0.9040631338     0.4866239878
N      2.6430863087     0.7367682503     0.6600270812
O      3.1710044887    -0.2895659509     0.3257201742
O      3.1681984165     1.7557192613     1.0243897944
C     -0.9699502950    -0.4258560883     0.5504110914
H     -1.1184066340    -0.7305121866     1.5984441412
Br    -1.8552685137    -1.8136109625    -0.4392184270
