15
attempt 1 | |g_proj| = 6.639e-03 | E = -3010.3406417320 Ha
C     -0.9117666197     2.0350860893     0.7300506187
C      0.4828189714     1.9438310001     0.7702096286
C      1.1532481659     0.7223448540     0.6707497639
C      0.4888411376    -0.4487764590     0.5597024028
C     -1.6257640981     0.8892070531     0.6062564082
H     -1.3894209947     3.0034503965     0.7733562431
H      1.0886210502     2.8326998943     0.8683326275
H      1.0181838858    -1.3932122753     0.4801591276
H     -2.7053330804     0.9229427563     0.5855265411
N      2.6402687299     0.7419827587     0.6343333175
O      3.1727188623    -0.2970903851     0.3547531058
O      3.1520889704     1.7936201645     0.9128982057
C     -0.9810418211    -0.4368623768     0.6175171904
H     -1.2325504968    -0.8625668276     1.5983938326
Br    -1.7427459343    -1.6450576697    -0.6907813302
15
attempt 2 | |g_proj| = 3.373e-03 | E = -3010.3407531422 Ha
C     -0.9099797347     2.0352500074     0.7279145577
C      0.4858266501     1.9492350787     0.7768883449
C      1.1544572704     0.7246734643     0.6704944362
C      0.4888368709    -0.4433920307     0.5571434538
C     -1.6216197387     0.8880610194     0.6035389560
H     -1.3911951146     3.0012170851     0.7719165977
H      1.0874479253     2.8442382444     0.8737841908
H      1.0145744859    -1.3866882324     0.4786695003
H     -2.7006696743     0.9115702445     0.5738646676
N      2.6379459945     0.7373123431     0.6340756280
O      3.1690321641    -0.3015787390     0.3531731713
O      3.1501037050     1.7881730955     0.9130442270
C     -0.9757076837    -0.4322496997     0.6179356509
H     -1.2292371819    -0.8743796595     1.5888040081
Br    -1.7516492088    -1.6398432433    -0.6697897026
15
attempt 3 | |g_proj| = 2.585e-03 | E = -3010.3407813207 Ha
C     -0.9099117861     2.0368943356     0.7291876434
C      0.4853227757     1.9514804924     0.7766942507
C      1.1543353290     0.7278548393     0.6711874578
C      0.4900448964    -0.4421823210     0.5569691695
C     -1.6207826945     0.8889707033     0.6040353469
H     -1.3924168181     3.0022189411     0.7701589247
H      1.0856064398     2.8454343979     0.8782562454
H      1.0168557635    -1.3862288067     0.4767119121
H     -2.6994979056     0.9100013916     0.5682184130
N      2.6389532332     0.7376060302     0.6337198128
O      3.1662548785    -0.3036486736     0.3524833908
O      3.1544592263     1.7866497972     0.9137748956
C     -0.9761217323    -0.4332965185     0.6182065726
H     -1.2255908113    -0.8754613941     1.5909752685
Br    -1.7593440637    -1.6446942321    -0.6691216117
15
attempt 4 | |g_proj| = 1.949e-03 | E = -3010.3407828066 Ha
C     -0.9102926684     2.0367220070     0.7290654618
C      0.4853302974     1.9515087110     0.7773838841
C      1.1544263876     0.7274331928     0.6710519121
C      0.4898662123    -0.4421869248     0.5565442137
C     -1.6207333179     0.8884762007     0.6036922260
H     -1.3926291603     3.0024060348     0.7699508810
H      1.0856566550     2.8461419540     0.8788374520
H      1.0170394860    -1.3855214869     0.4764905476
H     -2.6994299256     0.9099728603     0.5674636780
N      2.6388549709     0.7374652183     0.6338412183
O      3.1659099448    -0.3036116376     0.3523561176
O      3.1549057190     1.7861738788     0.9137768335
C     -0.9758660043    -0.4334509952     0.6178840356
H     -1.2250210660    -0.8754441261     1.5909227749
Br    -1.7598507987    -1.6444858998    -0.6678035395
