15
attempt 1 | |g_proj| = 5.737e-04 | E = -3010.3605155269 Ha
C     -0.9149866943     2.0298261944     0.7462486869
C      0.4825395870     1.9591458386     0.7881376061
C      1.1583059414     0.7378117531     0.6569808027
C      0.4943942442    -0.4305150125     0.5051955442
C     -1.6284699219     0.8795950335     0.5981989056
H     -1.4078238725     2.9892041831     0.8182694302
H      1.0794177867     2.8570018760     0.9089124462
H      1.0313601361    -1.3664552761     0.4036505199
H     -2.7109153971     0.8922043138     0.5630371914
N      2.6468533986     0.7444537422     0.6506883328
O      3.1791733371    -0.3233537173     0.5122627881
O      3.1694513279     1.8176680998     0.8003211110
C     -0.9704186737    -0.4328969370     0.5713221152
H     -1.1779366082    -0.8607772743     1.5618740936
Br    -1.8227778557    -1.6913138146    -0.6136418640
