15
ortho_th27_ph18 | OPTIMIZED | |g_proj|=8.419e-04 | E=-3010.3492467705 Ha
C     -1.7970524982     1.9517654798     0.7583963297
C     -0.3801573435     1.9934809886     0.7114482854
C      0.2783588694     0.8241157679     0.6712909544
C     -2.5223090092     0.7592858148     0.7762800804
H     -2.3331155615     2.8937188723     0.8012735206
H      0.1573680238     2.9308884362     0.7250846905
H     -3.6004544381     0.7828328424     0.8320867482
N      1.7638213970     0.8158558899     0.7370044718
O      2.2630741181    -0.2483865717     0.9989383302
O      2.3119048084     1.8619091198     0.5214041041
C     -1.8477168218    -0.4237225497     0.6871793383
H     -2.3760586744    -1.3684128368     0.6575095781
C     -0.3844164957    -0.4830093798     0.6106215555
H      0.0124371233    -1.1615166613     1.3652989941
Br     0.1008156448    -1.3443285138    -1.0640890453
