15
para_th36_ph288 | OPTIMIZED | |g_proj|=1.498e-03 | E=-3010.3434452225 Ha
C     -0.4607938118     1.2493444146     0.4683874063
C      0.8914188825     1.2581648960     0.5896894306
C      1.5338744636     0.0220361898     0.7113427130
H     -1.0131738132     2.1708706888     0.3570865504
H      1.4742562483     2.1670596321     0.5992949088
N      3.0153183834     0.0255104186     0.8768407083
O      3.5859242398    -0.9435201352     0.4547989646
O      3.4784882956     0.9965134893     1.4117520110
C     -0.4557171473    -1.2343380284     0.6146406544
H     -1.0032513368    -2.1677841260     0.6135345837
C      0.9008013281    -1.2194348184     0.6952276317
H      1.4919195597    -2.1201273239     0.7434781774
C     -1.2314309931     0.0057358503     0.5660885730
H     -1.6939653992     0.0890092614     1.5677256034
Br    -2.7477495752    -0.1515199301    -0.6044482069
