15
attempt 1 | |g_proj| = 6.368e-04 | E = -3010.3290903821 Ha
C     -1.7914833136     1.9473066195     0.7371459030
C     -0.3682593805     1.9808536385     0.7380099390
C      0.2830990381     0.8142599585     0.7082945834
C     -2.5058368085     0.7565329252     0.7360460033
H     -2.3253318774     2.8914030845     0.7479202058
H      0.1600436758     2.9184342639     0.7629411803
H     -3.5798967694     0.7772374574     0.7502940582
N      1.7621175228     0.8183777207     0.7538785089
O      2.2852823449    -0.2191016241     1.0705097384
O      2.2762818049     1.8646761978     0.4811740443
C     -1.8251932255    -0.4270936368     0.7272156483
H     -2.3468480628    -1.3723289838     0.7397684190
C     -0.3677402104    -0.4934167382     0.6486876343
H      0.0764990052    -1.2162788860     1.3321010264
Br    -0.0862346010    -1.2563852981    -1.1442589564
