15
attempt 1 | |g_proj| = 6.394e-05 | E = -3010.3489598900 Ha
C     -0.9058283860     2.0355565953     0.6953593249
C      0.4905147104     1.9642847536     0.7548454664
C      1.1583143673     0.7394074277     0.6267443385
C      0.4847275882    -0.4187100771     0.4599371350
C     -1.6275626548     0.8880809944     0.5638843580
H     -1.3925738223     2.9952889874     0.7547989960
H      1.0866879744     2.8586880521     0.9010874560
H      1.0164393211    -1.3518507781     0.3348388832
H     -2.7093745410     0.9043516737     0.5443570704
N      2.6391141146     0.7260702512     0.6865144740
O      3.1731865794    -0.2462844293     0.2283130507
O      3.1544759896     1.6903285456     1.1898737612
C     -0.9749623326    -0.4252122039     0.5695179493
H     -1.1486499103    -0.7481004170     1.6119781528
Br    -1.8363422521    -1.8103003373    -0.4505926704
