15
meta_th63_ph198 | OPTIMIZED | |g_proj|=1.921e-03 | E=-3010.3345152135 Ha
C     -0.9122438895     2.0349667822     0.7367317379
C      0.4841033999     1.9495220945     0.7607697828
C      1.1530599137     0.7240604548     0.6761217391
C      0.4899572199    -0.4483806773     0.5968391242
C     -1.6197549706     0.8841750651     0.6477025670
H     -1.3928619578     3.0020528487     0.7638161452
H      1.0846260781     2.8467543183     0.8268931684
H      1.0179508757    -1.3922997782     0.5323250136
H     -2.6975911153     0.9058669853     0.6227034617
N      2.6371443031     0.7364843156     0.6243244611
O      3.1675183561    -0.3175466731     0.4050345055
O      3.1483737619     1.8041830625     0.8271559641
C     -0.9771403337    -0.4397406514     0.6489287807
H     -1.2668101302    -0.9511747609     1.5727951902
Br    -1.7081647802    -1.5373244030    -0.7706839497
