15
attempt 1 | |g_proj| = 4.755e-04 | E = -3010.3524189602 Ha
C     -1.7966631181     1.9533910066     0.7555153609
C     -0.3796185051     1.9943878582     0.7052149490
C      0.2824541161     0.8263804940     0.6524283159
C     -2.5232144975     0.7625089401     0.7620431339
H     -2.3313334673     2.8956252911     0.8081161595
H      0.1582889358     2.9322036364     0.7298625105
H     -3.6020942744     0.7841445727     0.8142781849
N      1.7699666176     0.8252240022     0.7289465004
O      2.2813044123    -0.2554864726     0.8721663776
O      2.3095489833     1.8946060845     0.6447409943
C     -1.8472556444    -0.4211412376     0.6816832836
H     -2.3750482056    -1.3669425408     0.6654241859
C     -0.3830099793    -0.4814278885     0.6106629102
H      0.0130336606    -1.1357694935     1.3857257358
Br     0.0701401126    -1.4232275587    -1.0270806707
