15
attempt 1 | |g_proj| = 6.064e-03 | E = -3010.3485106765 Ha
C     -1.7958180400     1.9475001943     0.7436062219
C     -0.3796200686     1.9898879669     0.7074669747
C      0.2839161383     0.8209942003     0.6843787149
C     -2.5238138437     0.7562073035     0.7699248918
H     -2.3332233798     2.8891260811     0.7754444558
H      0.1569596108     2.9281528214     0.7255973653
H     -3.6034900776     0.7801161715     0.8215039070
N      1.7712965428     0.8147867303     0.7409216607
O      2.2791800663    -0.2519179904     0.9786370826
O      2.3150231808     1.8695272419     0.5593589148
C     -1.8465511611    -0.4256727992     0.7071098160
H     -2.3749229899    -1.3701767740     0.6800929158
C     -0.3801933802    -0.4874064314     0.6075535764
H      0.0268726197    -1.1607792098     1.3657585118
Br     0.0508838975    -1.3158687751    -1.0776270411
15
attempt 2 | |g_proj| = 4.424e-03 | E = -3010.3485588763 Ha
C     -1.7954959550     1.9472506466     0.7454239063
C     -0.3795079657     1.9904473888     0.7101431374
C      0.2841971600     0.8225613737     0.6819412619
C     -2.5236290032     0.7563496174     0.7714830823
H     -2.3331844008     2.8885601366     0.7695838622
H      0.1574381910     2.9278455103     0.7249216506
H     -3.6025114168     0.7790948204     0.8219739478
N      1.7710052304     0.8140175834     0.7453509611
O      2.2764791524    -0.2504867382     0.9920911785
O      2.3163340204     1.8661579787     0.5471195868
C     -1.8480837896    -0.4261521862     0.7038658494
H     -2.3744619894    -1.3725333769     0.6839403417
C     -0.3821325833    -0.4843580356     0.6157114140
H      0.0314331369    -1.1699678242     1.3594297859
Br     0.0486193244    -1.3043101588    -1.0832519929
15
attempt 3 | |g_proj| = 2.232e-03 | E = -3010.3485752717 Ha
C     -1.7957325757     1.9472657297     0.7444373696
C     -0.3792549634     1.9902324939     0.7097384094
C      0.2835915626     0.8214208304     0.6847335876
C     -2.5235519189     0.7559158438     0.7711569972
H     -2.3333107208     2.8888584018     0.7694809117
H      0.1575333065     2.9284286270     0.7248501437
H     -3.6030862508     0.7792646040     0.8219258527
N      1.7708553997     0.8146258260     0.7441497911
O      2.2762890873    -0.2505261086     0.9944829216
O      2.3164169966     1.8652484158     0.5459781000
C     -1.8468556466    -0.4265515649     0.7064944035
H     -2.3744386774    -1.3722021414     0.6839115819
C     -0.3812393407    -0.4858226762     0.6143204656
H      0.0310733275    -1.1693303803     1.3581416974
Br     0.0482095218    -1.3023511604    -1.0840742554
15
attempt 4 | |g_proj| = 1.985e-03 | E = -3010.3485754430 Ha
C     -1.7957022913     1.9472368066     0.7442917465
C     -0.3792817326     1.9901757036     0.7097950111
C      0.2836798740     0.8215353328     0.6849031112
C     -2.5235227440     0.7558375506     0.7712241685
H     -2.3333227056     2.8888710235     0.7693794147
H      0.1575025264     2.9283734794     0.7248016361
H     -3.6030270880     0.7792363693     0.8218956706
N      1.7708157119     0.8141061527     0.7444097312
O      2.2761231328    -0.2502605332     0.9948885983
O      2.3165017774     1.8653042559     0.5455195135
C     -1.8469132310    -0.4265921638     0.7066958470
H     -2.3744021468    -1.3721591503     0.6840233195
C     -0.3813146024    -0.4856863953     0.6142775905
H      0.0312084075    -1.1695489512     1.3580688653
Br     0.0481542155    -1.3019527354    -1.0844462420
