15
ortho_th18_ph54 | OPTIMIZED | |g_proj|=1.985e-03 | E=-3010.3485754430 Ha
C     -1.7957022913     1.9472368066     0.7442917465
C     -0.3792817326     1.9901757036     0.7097950111
C      0.2836798740     0.8215353328     0.6849031112
C     -2.5235227440     0.7558375506     0.7712241685
H     -2.3333227056     2.8888710235     0.7693794147
H      0.1575025264     2.9283734794     0.7248016361
H     -3.6030270880     0.7792363693     0.8218956706
N      1.7708157119     0.8141061527     0.7444097312
O      2.2761231328    -0.2502605332     0.9948885983
O      2.3165017774     1.8653042559     0.5455195135
C     -1.8469132310    -0.4265921638     0.7066958470
H     -2.3744021468    -1.3721591503     0.6840233195
C     -0.3813146024    -0.4856863953     0.6142775905
H      0.0312084075    -1.1695489512     1.3580688653
Br     0.0481542155    -1.3019527354    -1.0844462420
