15
ortho_th63_ph216 | OPTIMIZED | |g_proj|=8.238e-04 | E=-3010.3333054706 Ha
C     -1.7859306501     1.9528024502     0.6549535705
C     -0.3608527562     1.9816859691     0.6856266537
C      0.3060198691     0.8206048304     0.6885423170
C     -2.5001513431     0.7688031033     0.6689933732
H     -2.3204861676     2.8965779986     0.6334904485
H      0.1631624366     2.9211622011     0.7309684994
H     -3.5766669369     0.7865695827     0.6570091610
N      1.7829546074     0.8380199959     0.7494109143
O      2.3429489387    -0.1236534149     0.2889717262
O      2.2668514860     1.8016546201     1.2750838147
C     -1.8117283970    -0.4097490178     0.7753573681
H     -2.3351690025    -1.3451797107     0.8852444462
C     -0.3530098041    -0.4892686133     0.7028064734
H      0.1030761904    -1.1762834413     1.4138807974
Br    -0.2745193716    -1.4392698034    -1.0206115764
