15
ortho_th18_ph252 | OPTIMIZED | |g_proj|=1.479e-03 | E=-3010.3528353000 Ha
C     -1.7934877769     1.9569979162     0.7413776991
C     -0.3749300581     1.9897679652     0.7243633437
C      0.2937524443     0.8253989112     0.6513651286
C     -2.5226712863     0.7711734088     0.7071402385
H     -2.3257212798     2.9006975187     0.7895503363
H      0.1652125271     2.9247654811     0.7793858958
H     -3.6034051643     0.7914876063     0.7198767462
N      1.7837322085     0.8487020052     0.7023203559
O      2.3314408298    -0.2144074517     0.5644861803
O      2.2932341677     1.9204207953     0.8905170762
C     -1.8423570413    -0.4131154592     0.6882314663
H     -2.3726798893    -1.3565118421     0.7093310642
C     -0.3757789034    -0.4839145522     0.6383562895
H      0.0256855641    -1.1139850206     1.4300079736
Br    -0.0355272852    -1.5630004813    -0.9465817560
