15
ortho_th18_ph36 | OPTIMIZED | |g_proj|=1.687e-03 | E=-3010.3500884584 Ha
C     -1.7964069845     1.9495680407     0.7474210337
C     -0.3796267096     1.9913920398     0.7082951393
C      0.2828976641     0.8229571100     0.6745676712
C     -2.5235961514     0.7582033672     0.7695757480
H     -2.3326605783     2.8918615943     0.7816758191
H      0.1573560135     2.9292782445     0.7261513575
H     -3.6028067906     0.7813238509     0.8205224597
N      1.7700670507     0.8170876625     0.7397450166
O      2.2773392407    -0.2539479553     0.9549908208
O      2.3135822825     1.8754629976     0.5762730225
C     -1.8470862412    -0.4246709714     0.6989848436
H     -2.3744321056    -1.3704085762     0.6777174293
C     -0.3820904556    -0.4841948119     0.6132254991
H      0.0241340992    -1.1588569207     1.3678747546
Br     0.0598287852    -1.3405789454    -1.0672926511
