15
para_th72_ph180 | OPTIMIZED | |g_proj|=1.698e-03 | E=-3010.3218964932 Ha
C     -0.4761496244     1.2532511454     0.6581537518
C      0.8749909090     1.2543742766     0.7645977565
C      1.5107976898     0.0163671637     0.7644762655
H     -1.0280814715     2.1833119962     0.6234222083
H      1.4496257949     2.1669656679     0.7859097657
N      3.0051451118     0.0271077608     0.7362693323
O      3.5393195790    -1.0239895600     0.9625233833
O      3.5028350984     1.0885200428     0.4781519455
C     -0.4591378599    -1.2504951022     0.6336233435
H     -0.9952113443    -2.1896057860     0.5801846563
C      0.8921928913    -1.2296333147     0.7397652783
H      1.4840332333    -2.1306775513     0.7582102882
C     -1.2373892026    -0.0037737997     0.6177317365
H     -1.8947729770    -0.0170956708     1.4904953506
Br    -2.4022785448     0.0028932091    -0.9280754038
