15
attempt 1 | |g_proj| = 1.195e-03 | E = -3010.3189088498 Ha
C     -0.5183320077     1.2374583443     0.8631728875
C      0.8395271536     1.2443061858     0.8194559905
C      1.4859902484     0.0175773004     0.7408593023
H     -1.0791704040     2.1631559915     0.9152260860
H      1.4065954913     2.1602744219     0.8212730306
N      2.9702712262     0.0452094331     0.5970680370
O      3.5473068860    -0.9567425416     0.9197805638
O      3.4186440359     1.0591763167     0.1353263027
C     -0.4749528985    -1.2605218808     0.7860792518
H     -1.0042643223    -2.2019248988     0.7676566368
C      0.8783502247    -1.2365675203     0.7821978604
H      1.4772297976    -2.1342574015     0.7975954630
C     -1.2627241817    -0.0190108395     0.6876690610
H     -2.1924932200    -0.0536748098     1.2488385404
Br    -1.7260587944     0.0830623761    -1.2167594144
