15
attempt 1 | |g_proj| = 1.091e-03 | E = -3010.3301419339 Ha
C     -0.4704998264     1.2463772037     0.8454882440
C      0.8844287293     1.2287349144     0.9027287148
C      1.5310549775     0.0101561432     0.6967183146
H     -1.0235754837     2.1685064467     0.9657127561
H      1.4594791231     2.1190073468     1.0814681984
N      3.0016170839    -0.0038893135     0.7447363936
O      3.4679914144     0.4092055462     1.7707600452
O      3.5500208501    -0.4545951824    -0.2226540357
C     -0.4502000464    -1.2136238187     0.4741824712
H     -0.9968054443    -2.1296927331     0.3334127126
C      0.8981297221    -1.2169752308     0.4629304324
H      1.4856470357    -2.1036961353     0.2784436526
C     -1.2386656727     0.0097543336     0.6695262658
H     -1.9076387582    -0.1023102860     1.5269889765
Br    -2.4250644101     0.1805612438    -0.8650034695
