15
para_th18_ph252 | OPTIMIZED | |g_proj|=4.074e-04 | E=-3010.3550652116 Ha
C     -0.4738401029     1.2464160387     0.4768911634
C      0.8814768160     1.2563300614     0.6143695048
C      1.5310708715     0.0245916740     0.7150580287
H     -1.0345494774     2.1690054145     0.3932892952
H      1.4586898459     2.1692789649     0.6422330026
N      3.0213646755     0.0390582638     0.8935721448
O      3.5790782307    -1.0136494220     0.7364906525
O      3.5046218218     1.1009029636     1.1813911948
C     -0.4466138629    -1.2454084132     0.5469119582
H     -0.9875572133    -2.1826523115     0.5171457908
C      0.9094189636    -1.2225465575     0.6639502777
H      1.5075024500    -2.1213488897     0.7078172367
C     -1.2276697092    -0.0075334144     0.5438541236
H     -1.6395946384     0.0341932137     1.5672731229
Br    -2.8174793849    -0.0991171083    -0.5348078325
