15
attempt 1 | |g_proj| = 1.581e-04 | E = -3010.3580339074 Ha
C     -0.4785471051     1.2432402980     0.4880427392
C      0.8771779533     1.2550095512     0.6321092136
C      1.5294897329     0.0250293167     0.7200139581
H     -1.0416657844     2.1662601878     0.4189936256
H      1.4515898017     2.1701222976     0.6688408699
N      3.0223510297     0.0458078813     0.9011012450
O      3.5627622242    -1.0269726556     0.9343048657
O      3.5252917814     1.1327750297     0.9987644736
C     -0.4435268024    -1.2515592011     0.5077880713
H     -0.9802145276    -2.1911293446     0.4544869433
C      0.9121293734    -1.2235676453     0.6473561731
H      1.5124230858    -2.1215439991     0.6918776777
C     -1.2266773704    -0.0147431958     0.5300856187
H     -1.6055977244    -0.0080780721     1.5672325276
Br    -2.8510663958    -0.0531299698    -0.4955583569
