15
para_th63_ph0 | OPTIMIZED | |g_proj|=1.154e-03 | E=-3010.3176330065 Ha
C     -0.5176604939     1.2469415457     0.8199870438
C      0.8384109196     1.2563498678     0.7813698731
C      1.4818148223     0.0241924670     0.7261044997
H     -1.0769824894     2.1731376554     0.8423458735
H      1.4096704680     2.1710107651     0.7881466661
N      2.9746837117     0.0451607013     0.6002465417
O      3.5046126884    -1.0294160976     0.5246653074
O      3.4771512354     1.1344598281     0.5545433235
C     -0.4823688089    -1.2540895714     0.8343662888
H     -1.0154581359    -2.1955048285     0.8675759811
C      0.8737241716    -1.2247803061     0.7938641350
H      1.4702840718    -2.1229145710     0.8076506256
C     -1.2650356889    -0.0152836753     0.6933506906
H     -2.1974091996    -0.0251741990     1.2502998133
Br    -1.7095180406    -0.0365691040    -1.2190770683
