15
ortho_th72_ph180 | OPTIMIZED | |g_proj|=9.699e-04 | E=-3010.3278939758 Ha
C     -1.7824526951     1.9447160199     0.7126007343
C     -0.3586097489     1.9845694532     0.7220288098
C      0.2894621727     0.8181279527     0.7077434445
C     -2.4994850313     0.7573893151     0.7294382407
H     -2.3145782267     2.8885077722     0.7019392039
H      0.1691093100     2.9251885200     0.7543756637
H     -3.5733421202     0.7766766641     0.7381754810
N      1.7705499637     0.8209232633     0.7625942715
O      2.2807229192    -0.2527159072     0.9539976022
O      2.2957543459     1.8921398082     0.6439096911
C     -1.8238648330    -0.4299517746     0.7530359092
H     -2.3495463682    -1.3747838815     0.7833114819
C     -0.3658202084    -0.4929045055     0.6498506936
H      0.0913690823    -1.2156884925     1.3239366689
Br    -0.1827694706    -1.2577174489    -1.1472098998
