15
para_th63_ph198 | OPTIMIZED | |g_proj|=1.717e-03 | E=-3010.3274773420 Ha
C     -0.4677291047     1.2509225400     0.4479086872
C      0.8830552525     1.2445812577     0.6071397841
C      1.5175474110     0.0136379926     0.7282759818
H     -1.0153813963     2.1795546650     0.3419210255
H      1.4607769659     2.1534359592     0.6117885808
N      3.0028548115     0.0292878906     0.8937104219
O      3.5627746832    -1.0169734965     0.7108540492
O      3.4692986532     1.0851058040     1.2230448647
C     -0.4499992918    -1.2441632398     0.5366232728
H     -0.9922236211    -2.1775835488     0.5011465451
C      0.8986059446    -1.2324825855     0.6898308909
H      1.4857318498    -2.1377611421     0.7343684343
C     -1.2240382982     0.0012924095     0.5424646867
H     -1.5453492316     0.0390319963     1.6026107067
Br    -2.8200053195    -0.0403660231    -0.5062482407
