15
attempt 1 | |g_proj| = 2.560e-04 | E = -3010.3183047081 Ha
C     -0.9334290652     2.0044090043     0.8460273505
C      0.4552204124     1.9279452701     0.7142419550
C      1.1364585222     0.7114154445     0.7301992663
C      0.4897189676    -0.4688796438     0.7892498747
C     -1.6341867764     0.8463908235     0.8558972494
H     -1.4288773552     2.9626715188     0.8924047726
H      1.0348246124     2.8307827274     0.5975808997
H      1.0304643871    -1.4078847787     0.7933208227
H     -2.7125990790     0.8589190381     0.8967745228
N      2.6060850480     0.7103043954     0.5826053773
O      3.2059109496    -0.1806936462     1.1206937080
O      3.0348874576     1.5913110918    -0.1116814327
C     -0.9760217970    -0.4630049749     0.7016941013
H     -1.4450398373    -1.2577285032     1.2702073341
Br    -1.2552497317    -0.8643588442    -1.2077581680
