15
attempt 1 | |g_proj| = 1.626e-03 | E = -3010.3512817489 Ha
C     -1.7953357791     1.9507329410     0.7462446653
C     -0.3785201764     1.9916838927     0.7151470406
C      0.2854792550     0.8236045502     0.6737033338
C     -2.5235972265     0.7600522764     0.7579093263
H     -2.3314431262     2.8930399622     0.7801886184
H      0.1599910924     2.9291570923     0.7417421506
H     -3.6036513059     0.7825230633     0.8009206049
N      1.7737552865     0.8241729954     0.7312948944
O      2.2890565301    -0.2522816418     0.8952953963
O      2.3114185916     1.8924680470     0.6209099054
C     -1.8467267913    -0.4235252848     0.6994537833
H     -2.3747533310    -1.3694965556     0.6801230025
C     -0.3804392836    -0.4850013092     0.6152878050
H      0.0266791652    -1.1515176035     1.3776741908
Br     0.0345862301    -1.3811357132    -1.0461667677
