15
para_th0_ph0 | OPTIMIZED | |g_proj|=9.199e-04 | E=-3010.3562251499 Ha
C     -0.4802649574     1.2429650124     0.5153620734
C      0.8762426927     1.2552589993     0.6404070452
C      1.5286803394     0.0246850187     0.7167086781
H     -1.0446374305     2.1655173953     0.4540000771
H      1.4532851348     2.1685318496     0.6772452732
N      3.0232834024     0.0472649506     0.8838706018
O      3.5624275433    -1.0250159873     0.9406587035
O      3.5294746177     1.1354564665     0.9425180455
C     -0.4441772604    -1.2527085794     0.5259246697
H     -0.9818595236    -2.1915913893     0.4729543597
C      0.9121416322    -1.2248498159     0.6511550253
H      1.5151935851    -2.1208205967     0.6958334501
C     -1.2287778758    -0.0158585562     0.5428496385
H     -1.6525294729    -0.0181803265     1.5623362905
Br    -2.8025631952    -0.0431339635    -0.5563843364
