15
attempt 1 | |g_proj| = 2.943e-04 | E = -3010.3492500837 Ha
C     -1.7919146260     1.9490294203     0.7185704234
C     -0.3732134237     1.9881764436     0.7176634775
C      0.2933951330     0.8225715834     0.6825689501
C     -2.5175190746     0.7595621346     0.7254070064
H     -2.3272102747     2.8924339964     0.7265529566
H      0.1629093130     2.9262194986     0.7580678610
H     -3.5974739319     0.7794043061     0.7437318273
N      1.7820622121     0.8369928072     0.7350138830
O      2.3161600981    -0.2425782183     0.7370720015
O      2.3011218493     1.9184349391     0.7954892863
C     -1.8361634785    -0.4233449304     0.7280559909
H     -2.3620644303    -1.3696553172     0.7497466229
C     -0.3704579793    -0.4875068128     0.6410700482
H      0.0668927025    -1.1611786292     1.3778935580
Br    -0.1000250204    -1.4040844343    -1.0471758692
