15
ortho_th81_ph72 | OPTIMIZED | |g_proj|=1.102e-03 | E=-3010.3252601398 Ha
C     -1.7840866054     1.9286509051     0.8347088828
C     -0.3815240702     1.9823680633     0.8128677443
C      0.2963726586     0.8197332806     0.7238785712
C     -2.5155442528     0.7318672378     0.7755017004
H     -2.3312394072     2.8595307543     0.9038320839
H      0.1371307461     2.9224385018     0.8739454285
H     -3.5943868415     0.7563308527     0.8110423444
N      1.7613124352     0.7908181403     0.7665956214
O      2.2092520694     0.4325923035     1.8248069519
O      2.3352174697     1.0926769221    -0.2403683343
C     -1.8333779135    -0.4266682954     0.6561541274
H     -2.3525638807    -1.3670623771     0.5853866075
C     -0.3659860075    -0.4791535559     0.5523337123
H      0.0723473339    -1.2380710532     1.1996125858
Br    -0.0064246110    -1.0215749586    -1.2905700679
