15
attempt 1 | |g_proj| = 1.571e-03 | E = -3010.3502092919 Ha
C     -1.7925383934     1.9488000790     0.7408679316
C     -0.3752214322     1.9897973161     0.7208427860
C      0.2894641489     0.8223025017     0.6812580461
C     -2.5202173692     0.7586586217     0.7482377840
H     -2.3279726756     2.8916434210     0.7666527178
H      0.1610177560     2.9286538443     0.7515319217
H     -3.6001356490     0.7798825187     0.7819891644
N      1.7779561203     0.8307839774     0.7333138845
O      2.3001858898    -0.2435810417     0.8895573862
O      2.3081220642     1.9041632421     0.6373546512
C     -1.8424271296    -0.4250533371     0.7083364493
H     -2.3701074995    -1.3711514573     0.6864503891
C     -0.3759565675    -0.4875157064     0.6220145974
H      0.0448429338    -1.1566026066     1.3741794888
Br    -0.0305130971    -1.3863046229    -1.0528592111
