15
meta_th36_ph234 | OPTIMIZED | |g_proj|=1.871e-03 | E=-3010.3534751345 Ha
C     -0.9112924765     2.0330910882     0.7130775915
C      0.4810384904     1.9513626768     0.8058997742
C      1.1549008075     0.7360473366     0.6455610197
C      0.4912189258    -0.4278331436     0.4551426003
C     -1.6276008551     0.8898317604     0.5229613297
H     -1.4016056757     2.9934444952     0.7834260346
H      1.0744396019     2.8390522562     0.9876806739
H      1.0242803740    -1.3640147271     0.3358087437
H     -2.7085055348     0.9123997182     0.4704749085
N      2.6413947565     0.7334903547     0.6595570585
O      3.1723564127    -0.2756772202     0.2816440491
O      3.1631995484     1.7367216230     1.0682102309
C     -0.9715428299    -0.4247785034     0.5515532468
H     -1.1198047177    -0.7054069326     1.6071352815
Br    -1.8543100812    -1.8261317400    -0.4166747925
