15
attempt 1 | |g_proj| = 1.052e-03 | E = -3010.3275386970 Ha
C     -1.7870318843     1.9255760573     0.7656599883
C     -0.3815155089     1.9814452225     0.7589756749
C      0.2931606359     0.8157306818     0.7492345252
C     -2.5142250709     0.7276884677     0.7911272976
H     -2.3359488455     2.8583056092     0.7601590181
H      0.1380618665     2.9235741684     0.7716308044
H     -3.5925362719     0.7508017796     0.8374977570
N      1.7612784014     0.7792939283     0.7995871139
O      2.2061559072     0.1068294565     1.6951185150
O      2.3458771512     1.3937593616    -0.0472495355
C     -1.8310987014    -0.4384695068     0.7254481478
H     -2.3481284497    -1.3834946006     0.6947650870
C     -0.3668424319    -0.4836352137     0.5882686145
H      0.0982893198    -1.2628369892     1.1903750454
Br    -0.0389969868    -0.9100917098    -1.2908701032
