15
meta_th72_ph198 | OPTIMIZED | |g_proj|=1.759e-03 | E=-3010.3289794862 Ha
C     -0.9155022238     2.0306718089     0.7493795216
C      0.4805548166     1.9442205032     0.7381429938
C      1.1496553780     0.7175902113     0.6804437431
C      0.4883420378    -0.4564958279     0.6542633803
C     -1.6214447538     0.8785974999     0.7076191264
H     -1.3972402053     2.9964122048     0.7714945202
H      1.0802036420     2.8428219027     0.7584199411
H      1.0162650936    -1.4016752205     0.6109933142
H     -2.6990357224     0.8969845173     0.7050887450
N      2.6322867446     0.7295701664     0.6078433147
O      3.1727688362    -0.3375611821     0.5129584573
O      3.1319602859     1.8195628982     0.6616501593
C     -0.9788600241    -0.4447264044     0.6863881619
H     -1.3258805532    -1.0418199909     1.5313843513
Br    -1.6059066213    -1.3725541036    -0.9046120379
