15
meta_th63_ph252 | OPTIMIZED | |g_proj|=4.228e-03 | E=-3010.3307485478 Ha
C     -0.9088842471     2.0288117941     0.6755505997
C      0.4796361466     1.9422887883     0.7834935994
C      1.1559952628     0.7297697924     0.6317219892
C      0.4903806655    -0.4294539726     0.4474065861
C     -1.6304842593     0.8871082141     0.5110133083
H     -1.3975143671     2.9890386530     0.7206718937
H      1.0741256103     2.8260770229     0.9676735802
H      1.0232256332    -1.3636614651     0.3245599255
H     -2.7112945671     0.9129989839     0.4598921834
N      2.6360346051     0.7285701240     0.6635674703
O      3.1861850708    -0.1318435972     0.0320403785
O      3.1311802818     1.5779983931     1.3551494900
C     -0.9717818817    -0.4245001064     0.5719870994
H     -1.0779695760    -0.6327653124     1.6558142433
Br    -1.8706676383    -1.8388382967    -0.3290846235
