15
attempt 1 | |g_proj| = 4.181e-04 | E = -3010.3337098815 Ha
C     -0.4715480427     1.2224627605     0.8390717034
C      0.8761939613     1.2396206678     0.8469506175
C      1.5344194467     0.0048908118     0.7147835338
H     -1.0321731905     2.1358123831     0.9374060313
H      1.4537171583     2.1444797983     0.9445155571
N      2.9956696792     0.0312710803     0.7108522502
O      3.5030650588    -0.1480215694     1.7825191508
O      3.4948421141     0.2503503949    -0.3568810717
C     -0.4578151256    -1.2450898851     0.5688130874
H     -1.0049606944    -2.1705449588     0.4629518141
C      0.8963374840    -1.2330270876     0.5908685273
H      1.4816028423    -2.1307712100     0.5079277022
C     -1.2455290891    -0.0127955251     0.6719673004
H     -2.0121626920    -0.1114351265     1.4444340336
Br    -2.2457396566     0.1703179437    -1.0007406148
