15
meta_th9_ph18 | OPTIMIZED | |g_proj|=1.400e-03 | E=-3010.3564858279 Ha
C     -0.9213653587     2.0262242049     0.7647772272
C      0.4777420994     1.9617408036     0.7209616867
C      1.1572693287     0.7362446133     0.6534106200
C      0.4934801663    -0.4370039182     0.5824366163
C     -1.6331600226     0.8686051181     0.7024529796
H     -1.4149327821     2.9862367848     0.8337654169
H      1.0743093824     2.8677093587     0.7412161828
H      1.0332143252    -1.3738154193     0.5104069524
H     -2.7163416266     0.8779643841     0.7165449814
N      2.6459160458     0.7408852679     0.6522794554
O      3.1780564681    -0.3361637713     0.6362234554
O      3.1693178678     1.8239845748     0.6668160850
C     -0.9751202397    -0.4444709291     0.6144310992
H     -1.2690006736    -1.0077357090     1.5085740872
Br    -1.6912182661    -1.4888064450    -0.8328392160
