15
meta_th72_ph90 | OPTIMIZED | |g_proj|=6.979e-05 | E=-3010.3226834769 Ha
C     -0.9129341111     1.9785645429     0.8620822332
C      0.4651506413     1.9122398407     0.6920800153
C      1.1545179126     0.6884924215     0.6966314778
C      0.4927277749    -0.4762673394     0.7372201292
C     -1.6319887193     0.8224152254     0.8849263365
H     -1.4077094959     2.9302167544     0.9359576950
H      1.0452062404     2.8170443309     0.5762393525
H      1.0226267681    -1.4162706854     0.7384203160
H     -2.7128003285     0.8333767123     0.9616706450
N      2.6250688868     0.7242049318     0.6135649768
O      3.2285486244     0.1083927438     1.4495923720
O      3.0669940933     1.3772180970    -0.2964779110
C     -0.9789800041    -0.4744674013     0.6600846339
H     -1.4400261903    -1.2913823041     1.2054194022
Br    -1.4082353715    -0.7321789246    -1.2459540177
