15
attempt 1 | |g_proj| = 9.988e-04 | E = -3010.3470233027 Ha
C     -1.7961730695     1.9548595058     0.7690827532
C     -0.3796442051     1.9972288261     0.6970795010
C      0.2759549946     0.8285410686     0.6385912708
C     -2.5194090119     0.7626904928     0.7728818938
H     -2.3300456652     2.8955132874     0.8462392311
H      0.1568337450     2.9351898185     0.7145336779
H     -3.5957160271     0.7834594759     0.8403998464
N      1.7606434825     0.8235056314     0.7304258609
O      2.2552450504    -0.2516428287     0.9490970451
O      2.3094742676     1.8800177417     0.5792755623
C     -1.8473081026    -0.4207907632     0.6648217497
H     -2.3761574984    -1.3652288532     0.6359711108
C     -0.3855847682    -0.4803071168     0.5997419776
H     -0.0005691062    -1.1315442479     1.3823605659
Br     0.1189550606    -1.4270153444    -1.0307741149
