15
meta_th81_ph18 | OPTIMIZED | |g_proj|=1.517e-03 | E=-3010.3232182520 Ha
C     -0.9360177900     2.0129743640     0.7935203843
C      0.4575910088     1.9395006873     0.6782333347
C      1.1358798087     0.7185689825     0.6940132927
C      0.4868640417    -0.4616600106     0.7627864212
C     -1.6294358854     0.8526217157     0.8412596212
H     -1.4293347571     2.9734496639     0.8259679609
H      1.0393825196     2.8449136443     0.5771426499
H      1.0268806709    -1.4010770468     0.7691254359
H     -2.7047151524     0.8583586711     0.9072789454
N      2.6145579096     0.7157044978     0.5985193676
O      3.1622878945    -0.3220400799     0.8553887903
O      3.1020713394     1.7540800356     0.2458063652
C     -0.9785981603    -0.4626076210     0.7176787570
H     -1.4218244594    -1.2287734852     1.3488140869
Br    -1.3174222747    -0.9924151006    -1.1440777840
