15
attempt 1 | |g_proj| = 6.637e-03 | E = -3010.3388511136 Ha
C     -0.9131578830     2.0364829279     0.7289953049
C      0.4817898863     1.9474347135     0.7843474497
C      1.1548050741     0.7260971816     0.6692132067
C      0.4911687724    -0.4398264986     0.5388379084
C     -1.6291274991     0.8922612259     0.5911850184
H     -1.4014424553     2.9995695062     0.7647222155
H      1.0812764737     2.8398374834     0.8924544104
H      1.0303646392    -1.3776429096     0.4653327411
H     -2.7107660821     0.9162247636     0.5515164104
N      2.6422554103     0.7276963201     0.6350853672
O      3.1855187052    -0.2971399351     0.3244943528
O      3.1520965121     1.7680977930     0.9475310932
C     -0.9760152556    -0.4277952057     0.6106006086
H     -1.2088914589    -0.8481440109     1.5957317723
Br    -1.7717081064    -1.6615543634    -0.6285901583
15
attempt 2 | |g_proj| = 5.162e-03 | E = -3010.3390126079 Ha
C     -0.9099170705     2.0360010429     0.7237749819
C      0.4839316459     1.9502487359     0.7828453408
C      1.1545572121     0.7301113155     0.6643909859
C      0.4911581383    -0.4400578635     0.5370502819
C     -1.6215650470     0.8887976335     0.5845471784
H     -1.3951927910     3.0007317526     0.7661513520
H      1.0816725328     2.8430646195     0.9052412864
H      1.0205770765    -1.3816335788     0.4507889203
H     -2.7001644778     0.9132275244     0.5403049903
N      2.6397200498     0.7378473529     0.6372329706
O      3.1653121315    -0.2910035579     0.3101635265
O      3.1596199635     1.7675542590     0.9714855967
C     -0.9758846710    -0.4338884815     0.6065461162
H     -1.1991148210    -0.8328495050     1.6060423589
Br    -1.7865431381    -1.6865522528    -0.6151081810
15
attempt 3 | |g_proj| = 3.220e-03 | E = -3010.3390567827 Ha
C     -0.9108232174     2.0360276107     0.7235234459
C      0.4832405761     1.9500570339     0.7858782086
C      1.1538925962     0.7289045585     0.6660538506
C      0.4910365477    -0.4393550444     0.5313995470
C     -1.6235599172     0.8900585001     0.5811083836
H     -1.3966757281     2.9999138402     0.7652067137
H      1.0817907647     2.8428724428     0.9073310230
H      1.0230255994    -1.3800370552     0.4486721633
H     -2.7030034773     0.9133763944     0.5373748578
N      2.6394415087     0.7336444506     0.6378358762
O      3.1712515769    -0.2901584865     0.3046513784
O      3.1555536638     1.7634140669     0.9764051494
C     -0.9749476854    -0.4306525642     0.6051914945
H     -1.1961510198    -0.8287764683     1.6047431046
Br    -1.7859050528    -1.6876902782    -0.6039174863
15
attempt 4 | |g_proj| = 5.155e-03 | E = -3010.3390758041 Ha
C     -0.9111108914     2.0371626071     0.7229687172
C      0.4837587938     1.9478853221     0.7877810571
C      1.1562587981     0.7280300036     0.6643318739
C      0.4909523857    -0.4389827038     0.5305784449
C     -1.6244807696     0.8915817220     0.5787906829
H     -1.3987892470     3.0012790030     0.7638566481
H      1.0804820690     2.8410211622     0.9130275828
H      1.0244990414    -1.3778286817     0.4416357592
H     -2.7040461403     0.9138591275     0.5309818196
N      2.6414258467     0.7323831332     0.6374325403
O      3.1711557660    -0.2890618784     0.2960935575
O      3.1544279965     1.7612793737     0.9884377405
C     -0.9754572955    -0.4290923042     0.6019949709
H     -1.1895287883    -0.8192012321     1.6067100221
Br    -1.7913808286    -1.6987156482    -0.5931637022
15
attempt 5 | |g_proj| = 3.540e-03 | E = -3010.3390945589 Ha
C     -0.9112191047     2.0364702208     0.7229364083
C      0.4827018714     1.9491402935     0.7881921803
C      1.1539289376     0.7288034102     0.6650696504
C      0.4910832597    -0.4387350400     0.5265429221
C     -1.6242951981     0.8910339548     0.5761762491
H     -1.3977038060     3.0005017206     0.7637172677
H      1.0808416277     2.8409901749     0.9148760878
H      1.0243222753    -1.3783071677     0.4400999108
H     -2.7038616463     0.9142699693     0.5293108303
N      2.6397518943     0.7331513087     0.6386137065
O      3.1723409118    -0.2869187623     0.2936680933
O      3.1555174331     1.7578359687     0.9909692867
C     -0.9750261201    -0.4298398045     0.6015998694
H     -1.1882710609    -0.8164979773     1.6076815746
Br    -1.7919445371    -1.7002992591    -0.5879963180
15
attempt 6 | |g_proj| = 5.555e-03 | E = -3010.3390993677 Ha
C     -0.9117130927     2.0363971002     0.7220140916
C      0.4828851053     1.9487682780     0.7894468314
C      1.1548922007     0.7285689885     0.6643725371
C      0.4906332899    -0.4387422175     0.5246081479
C     -1.6242102790     0.8906918576     0.5742709378
H     -1.3977258992     3.0005049619     0.7635449526
H      1.0808625647     2.8412413883     0.9177095211
H      1.0243020009    -1.3779689654     0.4368518407
H     -2.7036225206     0.9144288392     0.5263507778
N      2.6406108501     0.7319984403     0.6386023751
O      3.1705959310    -0.2860621723     0.2896928410
O      3.1554880937     1.7580886581     0.9968799560
C     -0.9749530591    -0.4291889724     0.6001176843
H     -1.1856161115    -0.8121834081     1.6091991852
Br    -1.7942623352    -1.7049437612    -0.5822039558
15
attempt 1 | |g_proj| = 6.425e-03 | E = -3010.3388511109 Ha
C     -0.9124481090     2.0365776348     0.7292413710
C      0.4821592643     1.9480719741     0.7834131237
C      1.1543976041     0.7265413637     0.6699164033
C      0.4911667494    -0.4400748230     0.5411093140
C     -1.6282159687     0.8918847727     0.5930602354
H     -1.4003006158     2.9998321820     0.7654557128
H      1.0818792450     2.8405614855     0.8899201676
H      1.0286880444    -1.3787922999     0.4675899661
H     -2.7096131707     0.9153316762     0.5543244835
N      2.6413243815     0.7286764235     0.6349467516
O      3.1837742546    -0.2979615432     0.3292024074
O      3.1521807013     1.7702012472     0.9414032321
C     -0.9759798214    -0.4286364409     0.6118875141
H     -1.2116983224    -0.8528184953     1.5944867692
Br    -1.7691475035    -1.6577961655    -0.6344997506
15
attempt 2 | |g_proj| = 6.403e-03 | E = -3010.3389769737 Ha
C     -0.9088442389     2.0359927154     0.7229322754
C      0.4842864820     1.9511196166     0.7825223534
C      1.1540254464     0.7313730177     0.6638459778
C      0.4914093129    -0.4399221223     0.5363602832
C     -1.6200580368     0.8882098714     0.5831385123
H     -1.3938753675     3.0007457167     0.7664082277
H      1.0816211038     2.8434064294     0.9074856891
H      1.0186907459    -1.3826160928     0.4482928732
H     -2.6984320065     0.9126470656     0.5383190276
N      2.6384773908     0.7396900541     0.6377507388
O      3.1620132357    -0.2891976579     0.3077527769
O      3.1613248834     1.7667299004     0.9753673659
C     -0.9758326307    -0.4355297509     0.6058865444
H     -1.1975351952    -0.8302711298     1.6080296170
Br    -1.7891043910    -1.6907786370    -0.6126345569
15
attempt 3 | |g_proj| = 3.259e-03 | E = -3010.3390636778 Ha
C     -0.9108986882     2.0359803947     0.7228120920
C      0.4832676376     1.9501300843     0.7869126854
C      1.1538356593     0.7287720470     0.6660807699
C      0.4909152377    -0.4391924469     0.5293751303
C     -1.6234877027     0.8901211222     0.5791816183
H     -1.3966133440     2.9998388612     0.7649588186
H      1.0818712410     2.8431892016     0.9096589612
H      1.0228694350    -1.3797816048     0.4460889552
H     -2.7027903321     0.9131117313     0.5348592985
N      2.6393429776     0.7331836243     0.6382057833
O      3.1709688997    -0.2892373449     0.3008022115
O      3.1548532462     1.7620661437     0.9811208565
C     -0.9746606836    -0.4300474751     0.6042224667
H     -1.1938259999    -0.8253870488     1.6054117038
Br    -1.7874808479    -1.6911482887    -0.5982336409
