15
attempt 1 | |g_proj| = 4.866e-03 | E = -3010.3253265567 Ha
C     -0.4785697082     1.2686240686     0.6778205035
C      0.8746126976     1.2626562716     0.6622153099
C      1.5062969377     0.0160829227     0.7081583750
H     -1.0261472766     2.1983558551     0.6216959907
H      1.4708942570     2.1614417310     0.6249207476
N      2.9996302467     0.0117913418     0.6994901159
O      3.5051257048    -0.9554608656     0.1989652471
O      3.5289504344     0.9800472736     1.1742111396
C     -0.4913211988    -1.2248438153     0.8409984361
H     -1.0472825979    -2.1531443226     0.9168538398
C      0.8661130155    -1.2182604045     0.7798976951
H      1.4452080560    -2.1254117328     0.7960633678
C     -1.2588423062     0.0184893812     0.6819902079
H     -2.0982976964     0.0692048227     1.3749764586
Br    -2.0304512282    -0.1620520480    -1.0928177070
15
attempt 2 | |g_proj| = 1.662e-03 | E = -3010.3257637804 Ha
C     -0.4803867799     1.2715376775     0.6975412530
C      0.8710439574     1.2719998145     0.7149264951
C      1.4993915179     0.0224641218     0.7328065067
H     -1.0219698828     2.2023204393     0.6383327593
H      1.4586596232     2.1783175539     0.7077448423
N      2.9810197100     0.0050516201     0.6382133297
O      3.4374111725    -0.9267887174     0.0322271131
O      3.5505884609     0.9295862538     1.1507237307
C     -0.4960011941    -1.2154705658     0.8814864684
H     -1.0456313608    -2.1445648059     0.9710832339
C      0.8613916016    -1.2081857923     0.8344073283
H      1.4382237205    -2.1164060609     0.8641331104
C     -1.2608694146     0.0212454586     0.6717041003
H     -2.1526814812     0.0803578858     1.2949890204
Br    -1.8742703094    -0.2239444033    -1.1648795594
