15
para_th54_ph324 | OPTIMIZED | |g_proj|=1.662e-03 | E=-3010.3257637804 Ha
C     -0.4803867799     1.2715376775     0.6975412530
C      0.8710439574     1.2719998145     0.7149264951
C      1.4993915179     0.0224641218     0.7328065067
H     -1.0219698828     2.2023204393     0.6383327593
H      1.4586596232     2.1783175539     0.7077448423
N      2.9810197100     0.0050516201     0.6382133297
O      3.4374111725    -0.9267887174     0.0322271131
O      3.5505884609     0.9295862538     1.1507237307
C     -0.4960011941    -1.2154705658     0.8814864684
H     -1.0456313608    -2.1445648059     0.9710832339
C      0.8613916016    -1.2081857923     0.8344073283
H      1.4382237205    -2.1164060609     0.8641331104
C     -1.2608694146     0.0212454586     0.6717041003
H     -2.1526814812     0.0803578858     1.2949890204
Br    -1.8742703094    -0.2239444033    -1.1648795594
