15
attempt 1 | |g_proj| = 4.274e-03 | E = -3010.3483039683 Ha
C     -0.9125819323     2.0384048810     0.7301909532
C      0.4852974881     1.9648624137     0.7314979851
C      1.1530905935     0.7345105171     0.6374349769
C      0.4857942677    -0.4309382970     0.5228996314
C     -1.6261983868     0.8853463988     0.6365733099
H     -1.3999548252     3.0004257027     0.7938966765
H      1.0797274379     2.8672200593     0.8197647180
H      1.0220692065    -1.3659878826     0.4163319782
H     -2.7066749947     0.9011016278     0.6294076139
N      2.6357143582     0.7218867684     0.6750156816
O      3.1658911912    -0.3286379248     0.4349515094
O      3.1536731487     1.7756171439     0.9354225293
C     -0.9755993668    -0.4299857755     0.5909142429
H     -1.2103438824    -0.8611747032     1.5775849225
Br    -1.7417375392    -1.6710518225    -0.6604289163
15
attempt 2 | |g_proj| = 3.461e-03 | E = -3010.3484312864 Ha
C     -0.9136019470     2.0373524408     0.7324412901
C      0.4870036526     1.9702693115     0.7259628941
C      1.1567169973     0.7420198792     0.6407180082
C      0.4840170600    -0.4230138993     0.5339960022
C     -1.6302699000     0.8843732919     0.6485495018
H     -1.4007044502     2.9989139824     0.7981347917
H      1.0875542302     2.8706365981     0.8052786479
H      1.0142458534    -1.3603161280     0.4317497402
H     -2.7116472690     0.8967138883     0.6490195008
N      2.6436101168     0.7265841257     0.6753381299
O      3.1630153067    -0.3356232211     0.4661354346
O      3.1744788645     1.7822707356     0.8995193054
C     -0.9789498805    -0.4299572290     0.5922496982
H     -1.2343095293    -0.8986355616     1.5557126061
Br    -1.7329923399    -1.6599891027    -0.6833477342
15
attempt 3 | |g_proj| = 1.904e-03 | E = -3010.3484556422 Ha
C     -0.9130238762     2.0375146243     0.7332341152
C      0.4870916221     1.9689138404     0.7293406469
C      1.1561225334     0.7409166539     0.6400636606
C      0.4845267146    -0.4249358495     0.5316134757
C     -1.6295378884     0.8852176128     0.6455767791
H     -1.4005587797     2.9989173426     0.7984147666
H      1.0851204653     2.8710588993     0.8023403451
H      1.0169562213    -1.3625788350     0.4338151254
H     -2.7109153491     0.8980110620     0.6514898183
N      2.6419848714     0.7264693841     0.6749554756
O      3.1607727695    -0.3364539153     0.4682181983
O      3.1721842636     1.7827966242     0.8970435796
C     -0.9793425619    -0.4309262978     0.5929070989
H     -1.2338599539    -0.8981935246     1.5593817933
Br    -1.7293542852    -1.6551285051    -0.6869370570
