15
attempt 1 | |g_proj| = 1.042e-03 | E = -3010.3357776305 Ha
C     -1.7824950948     1.9417821136     0.6818402117
C     -0.3612905429     1.9821440354     0.7051930242
C      0.2967449368     0.8172225715     0.7106899298
C     -2.5037292908     0.7545539670     0.7220535076
H     -2.3163365471     2.8847975503     0.6470080333
H      0.1699101951     2.9215544320     0.7396269407
H     -3.5805726233     0.7744543434     0.7379629834
N      1.7809400576     0.8272348488     0.7794991301
O      2.3023780470    -0.2558290400     0.8499926183
O      2.3022568080     1.9078008614     0.8000292437
C     -1.8238654073    -0.4293023163     0.7734527491
H     -2.3472985199    -1.3750587088     0.8287020342
C     -0.3629798971    -0.4932682865     0.6491836707
H      0.1106290710    -1.2201564064     1.3086050365
Br    -0.2377921051    -1.2534532017    -1.1441111125
