15
meta_th45_ph18 | OPTIMIZED | |g_proj|=1.686e-03 | E=-3010.3355086900 Ha
C     -0.9338181124     2.0119253177     0.7859308335
C      0.4583442649     1.9415770131     0.6555732375
C      1.1404786295     0.7188718626     0.6801781399
C      0.4867879627    -0.4579022693     0.7518418546
C     -1.6361354700     0.8521885868     0.8456136473
H     -1.4242930257     2.9739888393     0.8194138778
H      1.0467017541     2.8447672779     0.5473179623
H      1.0262306905    -1.3977449236     0.7514765947
H     -2.7145862294     0.8592284720     0.9154715861
N      2.6235689066     0.7237480492     0.6156911988
O      3.1625470355    -0.3363335476     0.7827572501
O      3.1299434520     1.7860603684     0.3716617606
C     -0.9839284323    -0.4634276108     0.7007865885
H     -1.4188913997    -1.2136487707     1.3627844815
Br    -1.3547833113    -1.0416997420    -1.1150413792
