15
attempt 1 | |g_proj| = 1.304e-03 | E = -3010.3592909168 Ha
C     -0.9142493641     2.0319132796     0.7217750665
C      0.4803220277     1.9549942693     0.8031499442
C      1.1559785252     0.7390383431     0.6447554751
C      0.4921425459    -0.4249465996     0.4544518696
C     -1.6303887676     0.8864430325     0.5393502676
H     -1.4062575918     2.9916919061     0.7910630443
H      1.0744063124     2.8453080292     0.9750093485
H      1.0296192059    -1.3585525578     0.3333846878
H     -2.7121660094     0.9038098476     0.4866025275
N      2.6427534541     0.7358350019     0.6619347659
O      3.1723880291    -0.2886976666     0.3248922363
O      3.1681739252     1.7551849964     1.0246240885
C     -0.9702386114    -0.4254655362     0.5500053154
H     -1.1190538237    -0.7305243973     1.5983475678
Br    -1.8552631203    -1.8144329415    -0.4378884903
