15
attempt 1 | |g_proj| = 4.942e-03 | E = -3010.3400469878 Ha
C     -0.4708553779     1.2278564779     0.7215044365
C      0.8787500290     1.2472074724     0.7446399579
C      1.5251769724     0.0082900036     0.7263210015
H     -1.0246542313     2.1495763496     0.7672939704
H      1.4616280770     2.1568112610     0.7629955769
N      3.0007001532     0.0428685022     0.7582929289
O      3.5173302101    -0.7546634439     1.4926058462
O      3.5067823615     0.8783483174     0.0584353890
C     -0.4534689822    -1.2567617685     0.5748941119
H     -0.9943632973    -2.1894764624     0.4818801167
C      0.9014060549    -1.2383927401     0.6698871630
H      1.4904898742    -2.1407224379     0.6780671364
C     -1.2382328045    -0.0197349167     0.6408721606
H     -1.9144660489    -0.0967714998     1.4935471643
Br    -2.4203037333     0.1330853632    -0.9057973328
15
attempt 2 | |g_proj| = 2.709e-03 | E = -3010.3400830379 Ha
C     -0.4712205344     1.2292441337     0.7178490069
C      0.8793872264     1.2461940022     0.7457446219
C      1.5271718232     0.0077491869     0.7253322465
H     -1.0294401345     2.1507788537     0.7648532949
H      1.4595770320     2.1563269420     0.7629138793
N      3.0033412542     0.0409812815     0.7567067425
O      3.5197766914    -0.7548136429     1.4925470812
O      3.5122627429     0.8781695879     0.0619290030
C     -0.4537011026    -1.2577065644     0.5717201744
H     -0.9953835808    -2.1902887477     0.4836779976
C      0.9001644130    -1.2385072286     0.6713307940
H      1.4914344737    -2.1379568501     0.6778672481
C     -1.2368330647    -0.0203508389     0.6403965955
H     -1.9178903139    -0.0983197072     1.4918229177
Br    -2.4227276652     0.1360200699    -0.8992519714
15
attempt 3 | |g_proj| = 2.597e-03 | E = -3010.3400859680 Ha
C     -0.4717651401     1.2288628884     0.7182311277
C      0.8785870568     1.2464170340     0.7449984301
C      1.5269871479     0.0080301098     0.7250054841
H     -1.0302671132     2.1493653910     0.7624726121
H      1.4593654335     2.1567338103     0.7629516165
N      3.0053700056     0.0411985236     0.7575311029
O      3.5205400793    -0.7565987651     1.4926481730
O      3.5150208510     0.8785664400     0.0629593653
C     -0.4538493540    -1.2574444100     0.5724844441
H     -0.9958357245    -2.1907441989     0.4841865709
C      0.9010273227    -1.2379387578     0.6705279025
H      1.4924050985    -2.1379329302     0.6780172974
C     -1.2376657227    -0.0199144335     0.6407365047
H     -1.9177240131    -0.0991663050     1.4902524910
Br    -2.4262766635     0.1380860813    -0.8975634856
15
attempt 4 | |g_proj| = 1.940e-03 | E = -3010.3400872104 Ha
C     -0.4718146087     1.2287910830     0.7181128209
C      0.8787330923     1.2464912864     0.7449685127
C      1.5274449229     0.0082395904     0.7249725969
H     -1.0305123243     2.1494030554     0.7621683432
H      1.4592152773     2.1567056470     0.7629195208
N      3.0054075073     0.0411459566     0.7575762848
O      3.5205841170    -0.7566237053     1.4924739817
O      3.5153605484     0.8784340957     0.0633925599
C     -0.4537894745    -1.2575555301     0.5724087300
H     -0.9957695933    -2.1906113032     0.4843336713
C      0.9008089330    -1.2380943831     0.6704732389
H      1.4924778211    -2.1377835341     0.6780176755
C     -1.2374188104    -0.0201101833     0.6403481370
H     -1.9180443855    -0.0992982189     1.4904758086
Br    -2.4267637546     0.1383866213    -0.8972022409
