15
meta_th63_ph180 | OPTIMIZED | |g_proj|=8.989e-04 | E=-3010.3374159689 Ha
C     -0.9135628023     2.0292763837     0.7464870110
C      0.4843727141     1.9560859677     0.7483052089
C      1.1527427581     0.7267314678     0.6808596050
C      0.4890346880    -0.4461368795     0.6369884222
C     -1.6177613992     0.8739426503     0.6983309000
H     -1.3981741352     2.9925432321     0.7718791889
H      1.0792333664     2.8605038461     0.7849016876
H      1.0213356374    -1.3870685968     0.5952920052
H     -2.6951976906     0.8875472305     0.6924727053
N      2.6342762543     0.7308065735     0.6162482445
O      3.1570767980    -0.3482461891     0.5734103793
O      3.1513684274     1.8157785510     0.6268654272
C     -0.9752826230    -0.4458649686     0.6721138582
H     -1.3065844518    -1.0512210305     1.5185798454
Br    -1.6547108154    -1.3930792734    -0.8912768149
