15
attempt 1 | |g_proj| = 5.939e-03 | E = -3010.3464736158 Ha
C     -0.4758490154     1.2449237797     0.4917379774
C      0.8808659013     1.2550763869     0.6128798094
C      1.5276249258     0.0235356529     0.7069052015
H     -1.0332598750     2.1703093349     0.4027849279
H      1.4546527017     2.1709192402     0.6416316889
N      3.0158619819     0.0384416919     0.8933846571
O      3.5769220280    -1.0140722562     0.7498727185
O      3.4935339920     1.1084496214     1.1557026155
C     -0.4480127294    -1.2504927900     0.5605003715
H     -0.9872939777    -2.1886578563     0.5248361532
C      0.9083344214    -1.2240864772     0.6596619974
H      1.5054617186    -2.1232454472     0.7063936057
C     -1.2300262527    -0.0115108939     0.5407622586
H     -1.6370257570     0.0250448006     1.5741986515
Br    -2.7858707519    -0.0771143096    -0.5558129376
15
attempt 2 | |g_proj| = 4.001e-03 | E = -3010.3465086269 Ha
C     -0.4725871753     1.2443658575     0.4963863941
C      0.8821568250     1.2543476805     0.6140498988
C      1.5276255524     0.0219361977     0.7074069269
H     -1.0338297562     2.1652390386     0.4118056657
H      1.4557856061     2.1689572229     0.6409674199
N      3.0167957197     0.0431528620     0.8886876991
O      3.5736187974    -1.0138018741     0.7614193141
O      3.4985557223     1.1144518999     1.1403408172
C     -0.4497007352    -1.2507164815     0.5552185587
H     -0.9896976842    -2.1899745717     0.5302641416
C      0.9073161017    -1.2259374972     0.6602615069
H      1.5061565452    -2.1242852680     0.7055223203
C     -1.2287603879    -0.0090858372     0.5476136165
H     -1.6467996051     0.0199082125     1.5746894164
Br    -2.7807162107    -0.0710369637    -0.5691939951
15
attempt 3 | |g_proj| = 2.867e-03 | E = -3010.3465387356 Ha
C     -0.4759810326     1.2439570644     0.5004185008
C      0.8798737279     1.2551122021     0.6148361857
C      1.5278342864     0.0225780719     0.7060321986
H     -1.0342855390     2.1683208473     0.4165309411
H      1.4566326724     2.1690346992     0.6409338122
N      3.0170116873     0.0408292935     0.8895979091
O      3.5763505044    -1.0154419134     0.7666413187
O      3.4974226042     1.1152656584     1.1292910917
C     -0.4489312885    -1.2512456912     0.5625484551
H     -0.9893381942    -2.1893664344     0.5298915999
C      0.9083462595    -1.2249869315     0.6586474038
H      1.5049834815    -2.1240918270     0.7050112485
C     -1.2293795362    -0.0119754677     0.5474883619
H     -1.6509961842     0.0176033634     1.5714846897
Br    -2.7736241300    -0.0680724569    -0.5739140110
15
attempt 4 | |g_proj| = 1.702e-03 | E = -3010.3465486957 Ha
C     -0.4746040886     1.2445450763     0.5012597638
C      0.8808293710     1.2546297760     0.6153009882
C      1.5277848886     0.0219888674     0.7063045624
H     -1.0345740807     2.1674436219     0.4185951522
H      1.4560236490     2.1688834723     0.6410666413
N      3.0171876958     0.0417966200     0.8873893495
O      3.5751038692    -1.0155546381     0.7691648078
O      3.4986020329     1.1161641941     1.1262918863
C     -0.4493727944    -1.2509364323     0.5601926712
H     -0.9892449861    -2.1898499406     0.5310723598
C      0.9078448660    -1.2256500007     0.6599077858
H      1.5055925341    -2.1244067445     0.7047436427
C     -1.2292949044    -0.0104828281     0.5487550226
H     -1.6535799391     0.0169876066     1.5723490882
Br    -2.7723787909    -0.0680381720    -0.5769540113
