15
ortho_th81_ph90 | OPTIMIZED | |g_proj|=7.824e-04 | E=-3010.3221705346 Ha
C     -1.7745599626     1.9194434675     0.8226033033
C     -0.3756663268     1.9728987092     0.7994145640
C      0.3028929406     0.8106169058     0.7147904593
C     -2.5106668550     0.7286107286     0.7791859167
H     -2.3181288580     2.8494474912     0.8867150231
H      0.1483581471     2.9102102953     0.8645311938
H     -3.5891271196     0.7503337103     0.8246825586
N      1.7665852740     0.7973880252     0.7827277522
O      2.1905520268     0.4923540170     1.8673953577
O      2.3641948779     1.0817366593    -0.2154119136
C     -1.8355820762    -0.4347753964     0.6692697341
H     -2.3636923256    -1.3727427020     0.6120376830
C     -0.3668591876    -0.4859175746     0.5419999776
H      0.0819829284    -1.2552156808     1.1659739182
Br    -0.0737843642    -0.9799119296    -1.3261875637
