15
attempt 1 | |g_proj| = 9.144e-03 | E = -3010.3221394199 Ha
C     -0.9041681119     2.0182736001     0.6631455255
C      0.4888847419     1.9443849706     0.7520674341
C      1.1665543931     0.7327116528     0.6344658832
C      0.4845410735    -0.4215148156     0.4797492097
C     -1.6422861666     0.8836763755     0.5391803401
H     -1.3948913516     2.9730743620     0.7113653859
H      1.0852995457     2.8322748791     0.9106191137
H      1.0194430731    -1.3530276277     0.3799144604
H     -2.7276655477     0.9136657836     0.5145540412
N      2.6547772195     0.7328802920     0.6658849626
O      3.2053330735    -0.0989433562    -0.0018804041
O      3.1582895870     1.5639530468     1.3722954683
C     -0.9841486162    -0.4280130484     0.5916845221
H     -1.1380756147    -0.6920239148     1.6576490514
Br    -1.8637205618    -1.7997731932    -0.3992372791
15
attempt 2 | |g_proj| = 8.210e-03 | E = -3010.3227847860 Ha
C     -0.9034812169     2.0315984315     0.6660118080
C      0.4838453858     1.9414306289     0.7606742198
C      1.1519482793     0.7247339045     0.6222337145
C      0.4894755445    -0.4364369196     0.4516115339
C     -1.6271591775     0.8892742326     0.5311681361
H     -1.3914171148     2.9913199756     0.6964539670
H      1.0767923436     2.8288456794     0.9278891364
H      1.0235172553    -1.3731013686     0.3448033984
H     -2.7081779412     0.9091220212     0.4798821093
N      2.6251646998     0.7247797802     0.6702360891
O      3.1803514232    -0.0666964985    -0.0421555826
O      3.1081949969     1.5184511291     1.4344167699
C     -0.9700124205    -0.4237799335     0.5920549376
H     -1.0715949664    -0.6386366762     1.6793380959
Br    -1.8592803530    -1.8193053754    -0.3431606139
15
attempt 3 | |g_proj| = 4.959e-03 | E = -3010.3228794312 Ha
C     -0.9058653146     2.0306557144     0.6638616521
C      0.4808200899     1.9421838642     0.7616319855
C      1.1537416019     0.7266597528     0.6247022233
C      0.4905107363    -0.4328067747     0.4572413043
C     -1.6289241926     0.8863655959     0.5267794747
H     -1.3932609518     2.9915578123     0.6961520710
H      1.0773488278     2.8263123681     0.9291726018
H      1.0210656465    -1.3682735866     0.3411054847
H     -2.7104283744     0.9109649504     0.4806439453
N      2.6265495353     0.7272566258     0.6656389090
O      3.1903013883    -0.0622937764    -0.0407100041
O      3.1130884124     1.5087897652     1.4364828367
C     -0.9701211734    -0.4256248622     0.5892874261
H     -1.0719718323    -0.6378407346     1.6744225455
Br    -1.8646876599    -1.8223076988    -0.3349547322
