15
meta_th27_ph108 | OPTIMIZED | |g_proj|=6.377e-05 | E=-3010.3465733555 Ha
C     -0.9229015017     2.0017239863     0.7774604316
C      0.4695787962     1.9402902986     0.6683025728
C      1.1559198567     0.7146927590     0.6710154555
C      0.4976813449    -0.4612477209     0.6908625657
C     -1.6288406634     0.8407585272     0.8231848937
H     -1.4174936179     2.9596295868     0.8210655785
H      1.0595287618     2.8471370688     0.5898812154
H      1.0387969859    -1.3988182766     0.6795776045
H     -2.7098014418     0.8449922477     0.8936942053
N      2.6395021870     0.7400669639     0.6384123126
O      3.1934790112    -0.2777618980     0.9543783948
O      3.1402299848     1.7825214815     0.3041758311
C     -0.9751273497    -0.4702542837     0.6700440400
H     -1.3661335260    -1.2099093111     1.3707867076
Br    -1.5662521008    -1.0522224594    -1.0813841301
