15
attempt 1 | |g_proj| = 1.143e-03 | E = -3010.3572994568 Ha
C     -0.4777614392     1.2435894164     0.4925664884
C      0.8767540960     1.2542128086     0.6455913197
C      1.5278147870     0.0242730842     0.7295652803
H     -1.0377573040     2.1686530943     0.4326775168
H      1.4529679485     2.1680712943     0.6832500632
N      3.0211772276     0.0458939666     0.8986493866
O      3.5483296248    -1.0248647293     1.0375567162
O      3.5370577677     1.1310222578     0.8851618538
C     -0.4433421477    -1.2510214479     0.4933262988
H     -0.9808952839    -2.1888704104     0.4232605102
C      0.9106045933    -1.2237326525     0.6497988113
H      1.5088074152    -2.1226072016     0.6936294313
C     -1.2260432040    -0.0147730666     0.5263029191
H     -1.5951334021    -0.0197053222     1.5659934194
Br    -2.8566614115    -0.0426206139    -0.4918903740
