15
attempt 1 | |g_proj| = 4.947e-03 | E = -3010.3500242427 Ha
C     -1.7966192529     1.9510973917     0.7485747563
C     -0.3799460905     1.9918203084     0.7056705148
C      0.2827763650     0.8228278187     0.6701470683
C     -2.5237235799     0.7596356232     0.7672205897
H     -2.3326935976     2.8933498533     0.7915266745
H      0.1571945591     2.9297275127     0.7288118513
H     -3.6031090039     0.7829396453     0.8181133096
N      1.7703897636     0.8188536422     0.7346195079
O      2.2817838123    -0.2551910300     0.9262022934
O      2.3103264165     1.8825759833     0.5992701264
C     -1.8468041451    -0.4229269683     0.6967766346
H     -2.3745976795    -1.3679384968     0.6720751903
C     -0.3812747678    -0.4860602466     0.6063588269
H      0.0184298000    -1.1486715884     1.3772031458
Br     0.0643665315    -1.3675627359    -1.0528425395
15
attempt 2 | |g_proj| = 4.456e-03 | E = -3010.3500555157 Ha
C     -1.7959583866     1.9493563359     0.7496805757
C     -0.3795323167     1.9913601470     0.7091273799
C      0.2833678458     0.8237073394     0.6698526581
C     -2.5238577765     0.7587177643     0.7686508511
H     -2.3316541801     2.8916646828     0.7829958709
H      0.1576844522     2.9285467683     0.7264241039
H     -3.6026010247     0.7814267191     0.8205891454
N      1.7704298339     0.8183865743     0.7388716485
O      2.2777291404    -0.2537742886     0.9477506718
O      2.3137354430     1.8779474107     0.5819672901
C     -1.8484428819    -0.4244391217     0.6942693020
H     -2.3752506261    -1.3709386077     0.6772019894
C     -0.3832925827    -0.4827438061     0.6156699710
H      0.0232028790    -1.1577011391     1.3707506457
Br     0.0609393078    -1.3470400612    -1.0640741487
15
attempt 3 | |g_proj| = 2.379e-03 | E = -3010.3500850813 Ha
C     -1.7964775213     1.9496161180     0.7473609592
C     -0.3795247650     1.9913995847     0.7078880118
C      0.2826850400     0.8225879460     0.6750200361
C     -2.5237010990     0.7580688544     0.7689749012
H     -2.3325148574     2.8921046098     0.7825434326
H      0.1575888804     2.9295461623     0.7263609698
H     -3.6031872771     0.7815753107     0.8204437782
N      1.7701232811     0.8176941984     0.7385822291
O      2.2776543674    -0.2539770045     0.9529783100
O      2.3134903967     1.8759985956     0.5782489096
C     -1.8467849722    -0.4247949030     0.6996256595
H     -2.3745689676    -1.3701744153     0.6770437934
C     -0.3816566050    -0.4851161657     0.6117631783
H      0.0233738640    -1.1578173894     1.3685808738
Br     0.0599993580    -1.3422347798    -1.0656870832
15
attempt 4 | |g_proj| = 1.687e-03 | E = -3010.3500884584 Ha
C     -1.7964069845     1.9495680407     0.7474210337
C     -0.3796267096     1.9913920398     0.7082951393
C      0.2828976641     0.8229571100     0.6745676712
C     -2.5235961514     0.7582033672     0.7695757480
H     -2.3326605783     2.8918615943     0.7816758191
H      0.1573560135     2.9292782445     0.7261513575
H     -3.6028067906     0.7813238509     0.8205224597
N      1.7700670507     0.8170876625     0.7397450166
O      2.2773392407    -0.2539479553     0.9549908208
O      2.3135822825     1.8754629976     0.5762730225
C     -1.8470862412    -0.4246709714     0.6989848436
H     -2.3744321056    -1.3704085762     0.6777174293
C     -0.3820904556    -0.4841948119     0.6132254991
H      0.0241340992    -1.1588569207     1.3678747546
Br     0.0598287852    -1.3405789454    -1.0672926511
