15
meta_th81_ph0 | OPTIMIZED | |g_proj|=6.270e-04 | E=-3010.3289636102 Ha
C     -0.9324036136     2.0192330424     0.7689276953
C      0.4658890221     1.9557089351     0.6819845570
C      1.1399468984     0.7307383832     0.6754069551
C      0.4842312748    -0.4460005475     0.7340702792
C     -1.6278602993     0.8591797745     0.7938700122
H     -1.4195057634     2.9808348220     0.8004144993
H      1.0520635199     2.8645529224     0.6222146497
H      1.0216367096    -1.3847104096     0.7351001315
H     -2.7036553536     0.8655273859     0.8370042437
N      2.6195626840     0.7232260706     0.6003137929
O      3.1324615467    -0.3618352353     0.6007347443
O      3.1425435171     1.8023179401     0.5313731038
C     -0.9792561090    -0.4570292988     0.7157563820
H     -1.3935526700    -1.1681771802     1.4307014134
Br    -1.3939346510    -1.1819676914    -1.0564148344
