15
para_th72_ph54 | OPTIMIZED | |g_proj|=7.180e-04 | E=-3010.3263259972 Ha
C     -0.5032373954     1.2234637928     0.8785524049
C      0.8532506437     1.2350614328     0.8603853357
C      1.5116122089     0.0146692587     0.7450455653
H     -1.0718423451     2.1406929662     0.9581058630
H      1.4155161128     2.1490101091     0.9143319858
N      2.9755855780     0.0408249225     0.6357993460
O      3.5731512530    -0.5398856522     1.4987793759
O      3.3866068565     0.6201961623    -0.3322539879
C     -0.4548450732    -1.2568357278     0.6771238975
H     -0.9912169424    -2.1883157838     0.6137422593
C      0.8924788375    -1.2453331095     0.7016837343
H      1.4947648895    -2.1411539998     0.6760828937
C     -1.2527194216    -0.0205147056     0.6748976647
H     -2.1312944654    -0.0901212951     1.3147768607
Br    -1.9318914944     0.2057621068    -1.1516135903
