15
meta_th54_ph198 | OPTIMIZED | |g_proj|=1.949e-03 | E=-3010.3407828066 Ha
C     -0.9102926684     2.0367220070     0.7290654618
C      0.4853302974     1.9515087110     0.7773838841
C      1.1544263876     0.7274331928     0.6710519121
C      0.4898662123    -0.4421869248     0.5565442137
C     -1.6207333179     0.8884762007     0.6036922260
H     -1.3926291603     3.0024060348     0.7699508810
H      1.0856566550     2.8461419540     0.8788374520
H      1.0170394860    -1.3855214869     0.4764905476
H     -2.6994299256     0.9099728603     0.5674636780
N      2.6388549709     0.7374652183     0.6338412183
O      3.1659099448    -0.3036116376     0.3523561176
O      3.1549057190     1.7861738788     0.9137768335
C     -0.9758660043    -0.4334509952     0.6178840356
H     -1.2250210660    -0.8754441261     1.5909227749
Br    -1.7598507987    -1.6444858998    -0.6678035395
