15
attempt 1 | |g_proj| = 4.566e-03 | E = -3010.3394923973 Ha
C     -0.4709800563     1.2463239682     0.5043336264
C      0.8828150399     1.2504003016     0.6023345343
C      1.5233676349     0.0140397581     0.6972362393
H     -1.0259726250     2.1715785526     0.4064958181
H      1.4583480100     2.1639463842     0.6180743779
N      3.0078554852     0.0351376132     0.8743074990
O      3.5843320325    -0.9967687287     0.6595616803
O      3.4649772435     1.0946636170     1.2074766153
C     -0.4537209465    -1.2521969533     0.5975082083
H     -0.9962424338    -2.1895287613     0.5910070952
C      0.9039048303    -1.2329038071     0.6723455275
H      1.4996014635    -2.1331567296     0.7200221922
C     -1.2290174447    -0.0065572873     0.5632020165
H     -1.6696835032     0.0337356590     1.5805052678
Br    -2.7136653990    -0.0511931074    -0.6289709791
15
attempt 2 | |g_proj| = 4.510e-03 | E = -3010.3397310219 Ha
C     -0.4728790712     1.2488361498     0.5255397317
C      0.8846815374     1.2570290979     0.6118620363
C      1.5289543839     0.0220430721     0.7038232664
H     -1.0278045203     2.1756918126     0.4500985118
H      1.4697131112     2.1666460379     0.6188499485
N      3.0214672799     0.0342768213     0.8673859902
O      3.5790972669    -1.0147019352     0.6887273059
O      3.5025447890     1.0990834915     1.1459670451
C     -0.4549445418    -1.2455575902     0.6067628426
H     -1.0002851369    -2.1811041235     0.5832926680
C      0.9030487918    -1.2225239098     0.6750613502
H      1.4930761159    -2.1249928959     0.7165258717
C     -1.2361680788    -0.0058487896     0.5705349282
H     -1.7307205675     0.0298421914     1.5605846911
Br    -2.6938620246    -0.0911989510    -0.6595764642
15
attempt 3 | |g_proj| = 2.550e-03 | E = -3010.3397618139 Ha
C     -0.4714408108     1.2495876721     0.5268056939
C      0.8847518182     1.2558612160     0.6121344976
C      1.5279749442     0.0203539759     0.7027623700
H     -1.0275855137     2.1746405788     0.4507571341
H      1.4660219361     2.1666508032     0.6205353997
N      3.0194680545     0.0354669026     0.8641251540
O      3.5759298187    -1.0147858906     0.6907082451
O      3.5016958371     1.0995555790     1.1429989381
C     -0.4556329543    -1.2451069434     0.6034712368
H     -0.9985028190    -2.1825097829     0.5856040077
C      0.9022659472    -1.2245004528     0.6772899647
H      1.4951039449    -2.1258341546     0.7168948711
C     -1.2350829889    -0.0034517315     0.5728904297
H     -1.7294435990     0.0303597682     1.5626860167
Br    -2.6896042766    -0.0887670605    -0.6642242310
