15
para_th27_ph342 | OPTIMIZED | |g_proj|=2.550e-03 | E=-3010.3397618139 Ha
C     -0.4714408108     1.2495876721     0.5268056939
C      0.8847518182     1.2558612160     0.6121344976
C      1.5279749442     0.0203539759     0.7027623700
H     -1.0275855137     2.1746405788     0.4507571341
H      1.4660219361     2.1666508032     0.6205353997
N      3.0194680545     0.0354669026     0.8641251540
O      3.5759298187    -1.0147858906     0.6907082451
O      3.5016958371     1.0995555790     1.1429989381
C     -0.4556329543    -1.2451069434     0.6034712368
H     -0.9985028190    -2.1825097829     0.5856040077
C      0.9022659472    -1.2245004528     0.6772899647
H      1.4951039449    -2.1258341546     0.7168948711
C     -1.2350829889    -0.0034517315     0.5728904297
H     -1.7294435990     0.0303597682     1.5626860167
Br    -2.6896042766    -0.0887670605    -0.6642242310
