15
attempt 1 | |g_proj| = 2.376e-03 | E = -3010.3434421282 Ha
C     -0.4608992923     1.2492889763     0.4686147475
C      0.8912992281     1.2581027143     0.5894752146
C      1.5340190033     0.0219649564     0.7112310010
H     -1.0130595719     2.1706633558     0.3564510872
H      1.4743430518     2.1669543376     0.5994138239
N      3.0155334781     0.0253852252     0.8774785065
O      3.5861439144    -0.9434582525     0.4549589174
O      3.4785117010     0.9967862641     1.4118606422
C     -0.4557478865    -1.2342719314     0.6149306716
H     -1.0032756079    -2.1679907684     0.6129952675
C      0.9011087387    -1.2193320999     0.6949360521
H      1.4919891394    -2.1202109896     0.7435497431
C     -1.2320775821     0.0056955286     0.5647115669
H     -1.6936990113     0.0889989272     1.5678135621
Br    -2.7482699820    -0.1510557649    -0.6029810984
15
attempt 2 | |g_proj| = 1.498e-03 | E = -3010.3434452225 Ha
C     -0.4607938118     1.2493444146     0.4683874063
C      0.8914188825     1.2581648960     0.5896894306
C      1.5338744636     0.0220361898     0.7113427130
H     -1.0131738132     2.1708706888     0.3570865504
H      1.4742562483     2.1670596321     0.5992949088
N      3.0153183834     0.0255104186     0.8768407083
O      3.5859242398    -0.9435201352     0.4547989646
O      3.4784882956     0.9965134893     1.4117520110
C     -0.4557171473    -1.2343380284     0.6146406544
H     -1.0032513368    -2.1677841260     0.6135345837
C      0.9008013281    -1.2194348184     0.6952276317
H      1.4919195597    -2.1201273239     0.7434781774
C     -1.2314309931     0.0057358503     0.5660885730
H     -1.6939653992     0.0890092614     1.5677256034
Br    -2.7477495752    -0.1515199301    -0.6044482069
