15
meta_th45_ph216 | OPTIMIZED | |g_proj|=1.832e-03 | E=-3010.3463127717 Ha
C     -0.9114814455     2.0337843114     0.7117264112
C      0.4804193550     1.9496978253     0.8131305803
C      1.1529585256     0.7343673730     0.6531176673
C      0.4903648568    -0.4290827440     0.4645072234
C     -1.6255267480     0.8917100264     0.5192602322
H     -1.4000390177     2.9951048744     0.7739126411
H      1.0733412613     2.8371569588     0.9966737097
H      1.0227753566    -1.3659036275     0.3488519455
H     -2.7051418832     0.9156927712     0.4579263533
N      2.6386170313     0.7297393937     0.6521173226
O      3.1640645148    -0.2751624059     0.2561781361
O      3.1617952344     1.7263777372     1.0732141755
C     -0.9716249504    -0.4234962537     0.5589971795
H     -1.1215613865    -0.7011130127     1.6162737168
Br    -1.8407939659    -1.8172742168    -0.4244295749
