15
meta_th18_ph342 | OPTIMIZED | |g_proj|=1.705e-03 | E=-3010.3565771734 Ha
C     -0.9169247965     2.0320697272     0.7460773227
C      0.4823011714     1.9642904428     0.7585236766
C      1.1567920267     0.7418902223     0.6405769473
C      0.4908685310    -0.4252653918     0.4959316344
C     -1.6321515564     0.8804314823     0.6214590549
H     -1.4097800914     2.9909439631     0.8264000793
H      1.0784686538     2.8643116061     0.8628552556
H      1.0285814438    -1.3594886314     0.3820752185
H     -2.7150679700     0.8917659314     0.6107235837
N      2.6443972888     0.7359014192     0.6713817021
O      3.1711290675    -0.3350580392     0.5322153990
O      3.1712562051     1.8055185706     0.8277493870
C     -0.9730161649    -0.4312048780     0.5643698279
H     -1.1845076700    -0.8585089200     1.5595193593
Br    -1.7841793879    -1.6959984465    -0.6284006842
