15
attempt 1 | |g_proj| = 9.736e-04 | E = -3010.3317221256 Ha
C     -0.9357000802     1.9949066731     0.8142396013
C      0.4498148072     1.9239735998     0.6430619337
C      1.1403220778     0.7077744955     0.6970436355
C      0.4910270125    -0.4691144576     0.7871888259
C     -1.6395167353     0.8358807036     0.8938099424
H     -1.4295440086     2.9540292635     0.8600891970
H      1.0318628844     2.8228829140     0.4857789195
H      1.0356939682    -1.4052066182     0.8093734354
H     -2.7187457774     0.8444188957     0.9816038710
N      2.6192223315     0.7184224605     0.6127078590
O      3.1854072144    -0.2444546613     1.0558148500
O      3.0995734928     1.6830051535     0.0792983751
C     -0.9812135275    -0.4720829700     0.6914484128
H     -1.4410534983    -1.2771318144     1.2609644601
Br    -1.2989834401    -0.8157046916    -1.2009656622
