15
meta_th36_ph162 | OPTIMIZED | |g_proj|=4.262e-04 | E=-3010.3505105159 Ha
C     -0.9116380879     2.0237790667     0.7530785491
C      0.4858029755     1.9568069897     0.7497162316
C      1.1597527010     0.7275482050     0.6716354893
C      0.4943503261    -0.4437801047     0.5930875466
C     -1.6208688788     0.8673244361     0.6917504848
H     -1.4016996896     2.9838265595     0.7993709753
H      1.0827742402     2.8613408861     0.7957016649
H      1.0285810348    -1.3829281766     0.5338774258
H     -2.7016789198     0.8782692949     0.6954464450
N      2.6446022549     0.7425952169     0.6400751808
O      3.1808576036    -0.3271705679     0.7321585296
O      3.1586879644     1.8265225101     0.5449050073
C     -0.9723323197    -0.4482800796     0.6318605530
H     -1.2731851813    -1.0437073098     1.4993170888
Br    -1.7458392905    -1.4205479345    -0.8605234705
