15
attempt 1 | |g_proj| = 2.935e-03 | E = -3010.3539604391 Ha
C     -0.9110415800     2.0315677460     0.7126551145
C      0.4823041937     1.9510513728     0.8046438868
C      1.1568849161     0.7350962577     0.6437524858
C      0.4894233014    -0.4249956911     0.4498386065
C     -1.6316980139     0.8896552144     0.5253934174
H     -1.4019600009     2.9910981823     0.7807809893
H      1.0772753598     2.8382634123     0.9887678424
H      1.0256762088    -1.3590687710     0.3336205884
H     -2.7135242243     0.9105126673     0.4673342733
N      2.6423172796     0.7314668451     0.6639521961
O      3.1761438658    -0.2719605461     0.2749456145
O      3.1645581426     1.7327233028     1.0766000470
C     -0.9732195705    -0.4229654365     0.5504881813
H     -1.1186972016    -0.7021488455     1.6071353991
Br    -1.8562759288    -1.8286966634    -0.4084508876
15
attempt 2 | |g_proj| = 2.229e-03 | E = -3010.3539698069 Ha
C     -0.9115908855     2.0315371837     0.7124978205
C      0.4817359812     1.9510533917     0.8051023015
C      1.1561312769     0.7365823764     0.6435174800
C      0.4897401782    -0.4249799383     0.4501270818
C     -1.6312803115     0.8898117693     0.5232529613
H     -1.4019211383     2.9914732039     0.7800827841
H      1.0769532411     2.8375003343     0.9887942654
H      1.0255774513    -1.3590816527     0.3314404514
H     -2.7131087264     0.9106847422     0.4673576242
N      2.6436521951     0.7322992763     0.6617998049
O      3.1762491845    -0.2719156691     0.2730120665
O      3.1643740031     1.7313104453     1.0822062745
C     -0.9731943700    -0.4234550807     0.5504121358
H     -1.1171372416    -0.7005814200     1.6075612786
Br    -1.8580140890    -1.8306399107    -0.4057065713
15
attempt 3 | |g_proj| = 2.200e-03 | E = -3010.3539713069 Ha
C     -0.9116420200     2.0317100948     0.7120768752
C      0.4815177500     1.9511175802     0.8050171868
C      1.1568738894     0.7358126970     0.6427967797
C      0.4897272099    -0.4247950860     0.4494178786
C     -1.6314041803     0.8894653777     0.5231056691
H     -1.4020739675     2.9915689942     0.7797260850
H      1.0769474590     2.8377257775     0.9890666266
H      1.0256156104    -1.3587903334     0.3304038808
H     -2.7130909578     0.9107134058     0.4669610677
N      2.6428119211     0.7320478403     0.6628514830
O      3.1763673333    -0.2705740265     0.2714621660
O      3.1646604339     1.7300334707     1.0843749100
C     -0.9730426537    -0.4233670567     0.5500724946
H     -1.1164476333    -0.6996125536     1.6079492589
Br    -1.8586534440    -1.8314571258    -0.4038245983
15
attempt 4 | |g_proj| = 1.860e-03 | E = -3010.3539726849 Ha
C     -0.9116489837     2.0315450691     0.7118897396
C      0.4817764971     1.9509288996     0.8049007390
C      1.1563357003     0.7363912231     0.6428229135
C      0.4897946327    -0.4249191425     0.4489957034
C     -1.6313171793     0.8896564681     0.5229481143
H     -1.4021338652     2.9915827576     0.7795357658
H      1.0768233288     2.8376342214     0.9891833198
H      1.0256377021    -1.3587723066     0.3298717578
H     -2.7131350322     0.9106755634     0.4667896492
N      2.6432612957     0.7320464689     0.6629286567
O      3.1763739785    -0.2704593777     0.2706312751
O      3.1644660602     1.7296785138     1.0857524455
C     -0.9730523244    -0.4234478934     0.5501244332
H     -1.1160415953    -0.6990712867     1.6079726247
Br    -1.8589734636    -1.8318701173    -0.4028893694
