15
ortho_th36_ph108 | OPTIMIZED | |g_proj|=3.487e-03 | E=-3010.3344134321 Ha
C     -1.7852192981     1.9273328934     0.7259723190
C     -0.3749533115     1.9832609535     0.7227376242
C      0.2907018453     0.8155472260     0.7459498801
C     -2.5157401296     0.7370124021     0.7833036192
H     -2.3276129746     2.8629880421     0.6998505076
H      0.1563642753     2.9236049541     0.7124538355
H     -3.5942377653     0.7591527144     0.8331005040
N      1.7702921327     0.7918713944     0.7894310845
O      2.2502169749    -0.1694868782     1.3354756066
O      2.3344801760     1.7274816348     0.2924223613
C     -1.8429551629    -0.4434328685     0.7507978907
H     -2.3714917160    -1.3881636464     0.7266711821
C     -0.3748145493    -0.4896132896     0.6169606640
H      0.0823573385    -1.2368140568     1.2691533208
Br    -0.0508887513    -1.0162647067    -1.2145523929
