15
attempt 1 | |g_proj| = 3.666e-03 | E = -3010.3317054280 Ha
C     -1.7860192295     1.9473927416     0.6821477871
C     -0.3608297314     1.9928498403     0.6846720734
C      0.2898119381     0.8299543886     0.6795513241
C     -2.5044728995     0.7651096531     0.7352068924
H     -2.3127335208     2.8916138598     0.6665499693
H      0.1723660352     2.9329563593     0.7058035803
H     -3.5796461685     0.7775238555     0.7564835880
N      1.7696027154     0.8240332416     0.7795465805
O      2.2700568900    -0.2660576031     0.6961426441
O      2.3082123801     1.8855271101     0.9270046863
C     -1.8256042801    -0.4255987444     0.7530781253
H     -2.3417510525    -1.3746348600     0.8127666314
C     -0.3705733328    -0.4796372344     0.6677958906
H      0.0735372843    -1.1979152893     1.3449880966
Br    -0.1554579599    -1.3186405317    -1.1020098457
