15
meta_th27_ph342 | OPTIMIZED | |g_proj|=3.927e-03 | E=-3010.3527777032 Ha
C     -0.9158799639     2.0343534566     0.7365287517
C      0.4830189956     1.9661244954     0.7451977830
C      1.1546013535     0.7409374535     0.6345853329
C      0.4880880324    -0.4259456416     0.4996164464
C     -1.6301117153     0.8816488021     0.6254124802
H     -1.4054590855     2.9949177081     0.8133448103
H      1.0789945100     2.8660962326     0.8506348767
H      1.0256969529    -1.3595391503     0.3813795036
H     -2.7116698043     0.8973074408     0.6138613969
N      2.6410386237     0.7287215067     0.6782700131
O      3.1673475207    -0.3339664057     0.4850282629
O      3.1659431209     1.7891030357     0.8919788699
C     -0.9741825424    -0.4306457708     0.5678229231
H     -1.1859491799    -0.8441004920     1.5686955333
Br    -1.7733100753    -1.7034136414    -0.6208992470
