15
attempt 1 | |g_proj| = 6.841e-04 | E = -3010.3557044954 Ha
C     -0.9141331230     2.0351387951     0.7350441951
C      0.4851446870     1.9678835660     0.7494913403
C      1.1568705580     0.7434128644     0.6354160941
C      0.4876777286    -0.4212036120     0.4903061872
C     -1.6312805270     0.8840327837     0.6142300712
H     -1.4051207027     2.9942310976     0.8121792889
H      1.0816226269     2.8677132563     0.8564862233
H      1.0233825583    -1.3555362773     0.3771921065
H     -2.7136759591     0.8961993803     0.6100587415
N      2.6431497871     0.7307357843     0.6775050629
O      3.1663700604    -0.3302440090     0.4700581437
O      3.1727020823     1.7851349787     0.9118084894
C     -0.9743173076    -0.4278274117     0.5671045907
H     -1.1872575808    -0.8431943145     1.5657939029
Br    -1.7829681466    -1.7248778569    -0.6012167050
