15
meta_th72_ph36 | OPTIMIZED | |g_proj|=3.615e-04 | E=-3010.3203929451 Ha
C     -0.9366121192     2.0025961236     0.8391499492
C      0.4511075010     1.9278110946     0.6868526228
C      1.1348257984     0.7123219191     0.7192143323
C      0.4886385825    -0.4678846194     0.7968109615
C     -1.6363033227     0.8439743518     0.8729867254
H     -1.4324525411     2.9606258617     0.8906080705
H      1.0287392274     2.8300780531     0.5496759334
H      1.0308802117    -1.4060382555     0.8087118592
H     -2.7142488280     0.8555405507     0.9332856307
N      2.6072892381     0.7094477850     0.5892705225
O      3.1898621418    -0.2108566204     1.0964663092
O      3.0568006635     1.6163344572    -0.0572958601
C     -0.9778572618    -0.4645936778     0.7006226139
H     -1.4493087282    -1.2660933891     1.2591663344
Br    -1.2331938460    -0.8416647025    -1.2140683617
