15
attempt 1 | |g_proj| = 7.766e-04 | E = -3010.3502265859 Ha
C     -1.7966436210     1.9540951317     0.7657717983
C     -0.3800480586     1.9959088134     0.7012043306
C      0.2791422663     0.8277092180     0.6431716423
C     -2.5220010976     0.7627416472     0.7679046821
H     -2.3298626524     2.8959413334     0.8342084377
H      0.1571952746     2.9338097906     0.7238124627
H     -3.5997622668     0.7841313409     0.8275120783
N      1.7652840913     0.8243769232     0.7269248866
O      2.2686647741    -0.2536803900     0.9098662367
O      2.3090895009     1.8878891547     0.6073145528
C     -1.8477056265    -0.4203028943     0.6686307829
H     -2.3762405783    -1.3651678367     0.6448331270
C     -0.3847306000    -0.4803574552     0.6033853076
H      0.0010412839    -1.1291828001     1.3880847703
Br     0.1030764565    -1.4334352828    -1.0228971644
