15
attempt 1 | |g_proj| = 5.613e-03 | E = -3010.3304143139 Ha
C     -1.7926625816     1.9482055342     0.7643165111
C     -0.3778771607     1.9896221679     0.7279799137
C      0.2766859087     0.8189983663     0.6995422322
C     -2.5091634283     0.7495562857     0.7736129499
H     -2.3340961404     2.8880319652     0.8002151388
H      0.1518083613     2.9268294008     0.7365213817
H     -3.5834248004     0.7734670269     0.8209660768
N      1.7487939095     0.8018715782     0.7622248449
O      2.2335403952    -0.1626025641     1.2955147604
O      2.2998126522     1.7477217794     0.2783622561
C     -1.8318497211    -0.4269146567     0.7017891437
H     -2.3521590464    -1.3717920330     0.6823690162
C     -0.3743058323    -0.4886652076     0.6136034560
H      0.0600329157    -1.2137306751     1.3045932367
Br     0.0313636989    -1.1961222556    -1.1718829677
15
attempt 2 | |g_proj| = 1.299e-03 | E = -3010.3313415915 Ha
C     -1.7949830161     1.9438424158     0.7819160736
C     -0.3807575915     1.9902528414     0.7702529017
C      0.2776969105     0.8215549238     0.7321825485
C     -2.5115532009     0.7437208725     0.7755292025
H     -2.3423226263     2.8803732979     0.8029429286
H      0.1380742971     2.9326255051     0.7933291101
H     -3.5870588893     0.7679333584     0.8076173102
N      1.7479060581     0.7847496973     0.7632343347
O      2.2207183644    -0.0291786440     1.5152885523
O      2.3035552938     1.5434999070     0.0210877540
C     -1.8299290843    -0.4290709414     0.6981931748
H     -2.3472901683    -1.3741426203     0.6653992864
C     -0.3704834962    -0.4821901644     0.6100856463
H      0.0746918002    -1.2286931834     1.2686671806
Br     0.0482344751    -1.0808005486    -1.2159980492
