15
attempt 1 | |g_proj| = 5.719e-03 | E = -3010.3405041674 Ha
C     -1.7984642689     1.9494288309     0.7596153551
C     -0.3818348568     1.9901847148     0.7114367437
C      0.2754387563     0.8197785408     0.6919450127
C     -2.5211799505     0.7553244328     0.7818629083
H     -2.3378838683     2.8898709052     0.8003078913
H      0.1513105500     2.9276510746     0.7164553011
H     -3.5982367151     0.7816939765     0.8393088056
N      1.7574417110     0.8007716529     0.7496872805
O      2.2505180341    -0.2285697385     1.1369760497
O      2.3088908649     1.8069100762     0.4029499055
C     -1.8425752410    -0.4229574226     0.6965730201
H     -2.3675352871    -1.3655882872     0.6634135632
C     -0.3804973279    -0.4873995405     0.6060946470
H      0.0244918580    -1.1826185119     1.3453603339
Br     0.1066148759    -1.2500039959    -1.1122588723
15
attempt 2 | |g_proj| = 3.953e-03 | E = -3010.3405451941 Ha
C     -1.7979596288     1.9490264000     0.7590326057
C     -0.3812731576     1.9894212970     0.7127693128
C      0.2765407383     0.8202297605     0.6905912314
C     -2.5207810609     0.7551632453     0.7833234615
H     -2.3373014059     2.8897395110     0.7986279725
H      0.1511512293     2.9269800572     0.7163921139
H     -3.5976133997     0.7806341457     0.8395586762
N      1.7582096831     0.8009532044     0.7521201556
O      2.2492050237    -0.2276229144     1.1419371359
O      2.3095815642     1.8054594135     0.3973851977
C     -1.8435947915    -0.4236755402     0.6942633297
H     -2.3684682073    -1.3674987113     0.6645002749
C     -0.3825988016    -0.4839280314     0.6130068321
H      0.0250728648    -1.1843898276     1.3432096987
Br     0.1063284805    -1.2460152970    -1.1169900486
15
attempt 3 | |g_proj| = 2.797e-03 | E = -3010.3405541791 Ha
C     -1.7979111620     1.9488427155     0.7591650374
C     -0.3813930339     1.9898142956     0.7125497304
C      0.2763127885     0.8203220218     0.6919538392
C     -2.5209597010     0.7550082108     0.7830245634
H     -2.3369905897     2.8895313142     0.7978849964
H      0.1512479943     2.9271258751     0.7163443584
H     -3.5977299336     0.7804694410     0.8397417531
N      1.7580883506     0.8010680712     0.7516318614
O      2.2491073323    -0.2269075406     1.1446463479
O      2.3099591819     1.8039874207     0.3955518587
C     -1.8437797129    -0.4238178211     0.6952809507
H     -2.3684206010    -1.3676569382     0.6646869568
C     -0.3820527272    -0.4850425881     0.6110932945
H      0.0254794709    -1.1853645721     1.3428719500
Br     0.1055414694    -1.2429031886    -1.1166995436
15
attempt 4 | |g_proj| = 7.080e-03 | E = -3010.3406720820 Ha
C     -1.7976914657     1.9469612196     0.7576585078
C     -0.3806688434     1.9892212729     0.7140235886
C      0.2756987315     0.8192092063     0.6981917977
C     -2.5208658879     0.7525142894     0.7841195744
H     -2.3359907073     2.8882064675     0.7898356394
H      0.1517006784     2.9284503568     0.7151021202
H     -3.5985281605     0.7788527111     0.8418821958
N      1.7580296763     0.7979962816     0.7554313937
O      2.2453136538    -0.2196122173     1.1733254611
O      2.3135845949     1.7918839108     0.3714816806
C     -1.8428183023    -0.4263826095     0.6996459257
H     -2.3687771495    -1.3697913413     0.6686255831
C     -0.3820645112    -0.4853688387     0.6150815132
H      0.0284611202    -1.1929928237     1.3339620103
Br     0.1011156956    -1.2146711636    -1.1286390324
15
attempt 5 | |g_proj| = 2.096e-03 | E = -3010.3406905051 Ha
C     -1.7974124362     1.9469856090     0.7576216541
C     -0.3810399178     1.9896700229     0.7142117494
C      0.2764822424     0.8200602403     0.6985600471
C     -2.5209582537     0.7527810060     0.7845202783
H     -2.3362246732     2.8880495826     0.7894052040
H      0.1511863800     2.9276517694     0.7150098415
H     -3.5978846672     0.7786914445     0.8417273025
N      1.7579539985     0.7990015206     0.7553319956
O      2.2454721284    -0.2198478879     1.1750375427
O      2.3129268543     1.7899087797     0.3705494280
C     -1.8437358142    -0.4260561856     0.6996137358
H     -2.3684104863    -1.3699503713     0.6689792790
C     -0.3820444081    -0.4850080171     0.6140202700
H      0.0294826228    -1.1941114611     1.3342561837
Br     0.1007055493    -1.2133493257    -1.1291165480
15
attempt 6 | |g_proj| = 2.096e-03 | E = -3010.3406905310 Ha
C     -1.7974124370     1.9469856099     0.7576216545
C     -0.3810399180     1.9896700238     0.7142117497
C      0.2764822425     0.8200602407     0.6985600474
C     -2.5209582549     0.7527810064     0.7845202787
H     -2.3362246743     2.8880495840     0.7894052044
H      0.1511863801     2.9276517708     0.7150098418
H     -3.5978846689     0.7786914449     0.8417273029
N      1.7579539993     0.7990015210     0.7553319960
O      2.2454721295    -0.2198478880     1.1750375433
O      2.3129268554     1.7899087805     0.3705494282
C     -1.8437358151    -0.4260561858     0.6996137361
H     -2.3684104874    -1.3699503719     0.6689792793
C     -0.3820444083    -0.4850080173     0.6140202703
H      0.0294826228    -1.1941114617     1.3342561843
Br     0.1007055493    -1.2133493263    -1.1291165485
15
attempt 1 | |g_proj| = 5.720e-03 | E = -3010.3405041577 Ha
C     -1.7984645413     1.9494285108     0.7596146807
C     -0.3818352065     1.9901838452     0.7114363938
C      0.2754391799     0.8197778741     0.6919459219
C     -2.5211806044     0.7553242450     0.7818625487
H     -2.3378843448     2.8898705155     0.8003073812
H      0.1513099878     2.9276502407     0.7164554757
H     -3.5982375984     0.7816942428     0.8393093759
N      1.7574424110     0.8007704629     0.7496878588
O      2.2505197171    -0.2285690074     1.1369789688
O      2.3088910932     1.8069087000     0.4029476600
C     -1.8425751913    -0.4229570412     0.6965736176
H     -2.3675351659    -1.3655875802     0.6634139547
C     -0.3804970151    -0.4874000113     0.6060936617
H      0.0244923793    -1.1826178253     1.3453608555
Br     0.1066140340    -1.2500004633    -1.1122604094
15
attempt 2 | |g_proj| = 3.954e-03 | E = -3010.3405451844 Ha
C     -1.7979597753     1.9490260865     0.7590321551
C     -0.3812732479     1.9894207452     0.7127691767
C      0.2765409357     0.8202295216     0.6905916838
C     -2.5207814384     0.7551631857     0.7833234184
H     -2.3373015534     2.8897391395     0.7986273415
H      0.1511508714     2.9269795763     0.7163921153
H     -3.5976137763     0.7806342155     0.8395591764
N      1.7582101580     0.8009524553     0.7521207633
O      2.2492057059    -0.2276223086     1.1419398438
O      2.3095819354     1.8054582272     0.3973830509
C     -1.8435949436    -0.4236754376     0.6942635562
H     -2.3684682078    -1.3674986608     0.6645007691
C     -0.3825987778    -0.4839280448     0.6130068979
H      0.0250732507    -1.1843897657     1.3432095513
Br     0.1063279940    -1.2460122225    -1.1169915494
