15
attempt 1 | |g_proj| = 2.040e-03 | E = -3010.3517486795 Ha
C     -0.9241935874     2.0257666904     0.7659536693
C      0.4747123323     1.9621454397     0.7040092365
C      1.1540432545     0.7361888892     0.6572230635
C      0.4914945834    -0.4387573153     0.6264356378
C     -1.6350194126     0.8671412949     0.7348930858
H     -1.4178079916     2.9858983179     0.8245437730
H      1.0708180262     2.8686375304     0.6991295323
H      1.0317924569    -1.3765734953     0.5728592339
H     -2.7176847192     0.8747840773     0.7636138580
N      2.6420452560     0.7365503381     0.6411178770
O      3.1704660951    -0.3421650031     0.6259022386
O      3.1684171217     1.8178968016     0.6351899627
C     -0.9784202317    -0.4480493944     0.6395628288
H     -1.3166703598    -1.0583690297     1.4854416836
Br    -1.6058261099    -1.4094962231    -0.9044180511
15
attempt 2 | |g_proj| = 1.890e-03 | E = -3010.3517487342 Ha
C     -0.9242105959     2.0257026724     0.7659300756
C      0.4746543758     1.9621438547     0.7039146148
C      1.1540791920     0.7359798381     0.6572889597
C      0.4914463273    -0.4388235591     0.6265805630
C     -1.6350395167     0.8669562599     0.7349340418
H     -1.4177644978     2.9858197241     0.8245223747
H      1.0707347914     2.8685867001     0.6991381620
H      1.0318401554    -1.3766429558     0.5728830102
H     -2.7177363847     0.8748664430     0.7636754118
N      2.6419994024     0.7365702835     0.6411134206
O      3.1706151000    -0.3421912414     0.6262886680
O      3.1682194450     1.8179301957     0.6347493031
C     -0.9784369920    -0.4481065624     0.6397878389
H     -1.3164275862    -1.0582266923     1.4854819980
Br    -1.6058065009    -1.4089660372    -0.9048308082
