15
meta_th18_ph18 | OPTIMIZED | |g_proj|=1.890e-03 | E=-3010.3517487342 Ha
C     -0.9242105959     2.0257026724     0.7659300756
C      0.4746543758     1.9621438547     0.7039146148
C      1.1540791920     0.7359798381     0.6572889597
C      0.4914463273    -0.4388235591     0.6265805630
C     -1.6350395167     0.8669562599     0.7349340418
H     -1.4177644978     2.9858197241     0.8245223747
H      1.0707347914     2.8685867001     0.6991381620
H      1.0318401554    -1.3766429558     0.5728830102
H     -2.7177363847     0.8748664430     0.7636754118
N      2.6419994024     0.7365702835     0.6411134206
O      3.1706151000    -0.3421912414     0.6262886680
O      3.1682194450     1.8179301957     0.6347493031
C     -0.9784369920    -0.4481065624     0.6397878389
H     -1.3164275862    -1.0582266923     1.4854819980
Br    -1.6058065009    -1.4089660372    -0.9048308082
