15
attempt 1 | |g_proj| = 3.973e-03 | E = -3010.3394794167 Ha
C     -0.4607637722     1.2500944712     0.4744076714
C      0.8914685665     1.2591613021     0.5896865487
C      1.5318363467     0.0219409807     0.7091270105
H     -1.0116184099     2.1721861018     0.3599467973
H      1.4737311340     2.1694227666     0.5986841858
N      3.0135187288     0.0247135360     0.8773611639
O      3.5828434867    -0.9452997476     0.4550190322
O      3.4756185662     0.9993735484     1.4061597183
C     -0.4574894455    -1.2362842060     0.6195980905
H     -1.0041225381    -2.1712403877     0.6161635211
C      0.9002225920    -1.2186161337     0.6939141161
H      1.4901047936    -2.1199595450     0.7429470534
C     -1.2330021787     0.0047710856     0.5631340693
H     -1.6918377369     0.0873269324     1.5699032723
Br    -2.7345908051    -0.1500702258    -0.6106125367
15
attempt 2 | |g_proj| = 2.149e-03 | E = -3010.3394876510 Ha
C     -0.4606180888     1.2500315432     0.4740180324
C      0.8913955998     1.2593183009     0.5901140739
C      1.5316531622     0.0220390912     0.7093367070
H     -1.0116416523     2.1721985013     0.3609798579
H      1.4735204681     2.1693696576     0.5986391021
N      3.0129092425     0.0250883473     0.8760748123
O      3.5825459155    -0.9454409377     0.4556633079
O      3.4755278357     0.9993364325     1.4052270904
C     -0.4573742785    -1.2363738182     0.6189976503
H     -1.0040847221    -2.1711075787     0.6170730897
C      0.8996652139    -1.2190082107     0.6942801027
H      1.4900030486    -2.1199311873     0.7428173541
C     -1.2315591440     0.0049477089     0.5657402696
H     -1.6920097671     0.0870101614     1.5697594571
Br    -2.7340135017    -0.1499575328    -0.6132811888
15
attempt 3 | |g_proj| = 2.054e-03 | E = -3010.3394876898 Ha
C     -0.4604736584     1.2501252643     0.4741912566
C      0.8914006374     1.2593325896     0.5902079299
C      1.5314057070     0.0219932316     0.7093210477
H     -1.0116714875     2.1721872566     0.3614620284
H      1.4734825191     2.1694227514     0.5986113165
N      3.0128083965     0.0250091164     0.8756985137
O      3.5823037689    -0.9455579333     0.4558392961
O      3.4754495236     0.9995619851     1.4047200139
C     -0.4573261391    -1.2364733822     0.6190784673
H     -1.0041403227    -2.1710942215     0.6174762748
C      0.8997707416    -1.2189926605     0.6943413016
H      1.4899710907    -2.1199754483     0.7427498790
C     -1.2316213028     0.0049467100     0.5657585660
H     -1.6923642824     0.0868825257     1.5701476213
Br    -2.7330758565    -0.1498473059    -0.6141637897
15
attempt 4 | |g_proj| = 2.054e-03 | E = -3010.3394876946 Ha
C     -0.4604736586     1.2501252649     0.4741912568
C      0.8914006378     1.2593325902     0.5902079302
C      1.5314057077     0.0219932316     0.7093210480
H     -1.0116714880     2.1721872576     0.3614620286
H      1.4734825198     2.1694227524     0.5986113168
N      3.0128083979     0.0250091164     0.8756985141
O      3.5823037706    -0.9455579337     0.4558392963
O      3.4754495252     0.9995619856     1.4047200146
C     -0.4573261393    -1.2364733828     0.6190784676
H     -1.0041403232    -2.1710942225     0.6174762751
C      0.8997707420    -1.2189926611     0.6943413019
H      1.4899710914    -2.1199754493     0.7427498794
C     -1.2316213034     0.0049467100     0.5657585663
H     -1.6923642832     0.0868825257     1.5701476220
Br    -2.7330758578    -0.1498473060    -0.6141637900
15
attempt 5 | |g_proj| = 2.054e-03 | E = -3010.3394876681 Ha
C     -0.4604736588     1.2501252655     0.4741912570
C      0.8914006382     1.2593325908     0.5902079305
C      1.5314057084     0.0219932316     0.7093210483
H     -1.0116714885     2.1721872586     0.3614620288
H      1.4734825205     2.1694227534     0.5986113171
N      3.0128083993     0.0250091164     0.8756985145
O      3.5823037723    -0.9455579341     0.4558392965
O      3.4754495268     0.9995619861     1.4047200153
C     -0.4573261395    -1.2364733834     0.6190784679
H     -1.0041403237    -2.1710942235     0.6174762754
C      0.8997707424    -1.2189926617     0.6943413022
H      1.4899710921    -2.1199754503     0.7427498798
C     -1.2316213040     0.0049467100     0.5657585666
H     -1.6923642840     0.0868825257     1.5701476227
Br    -2.7330758591    -0.1498473061    -0.6141637903
15
attempt 6 | |g_proj| = 2.054e-03 | E = -3010.3394876690 Ha
C     -0.4604736590     1.2501252661     0.4741912572
C      0.8914006386     1.2593325914     0.5902079308
C      1.5314057091     0.0219932316     0.7093210486
H     -1.0116714890     2.1721872596     0.3614620290
H      1.4734825212     2.1694227544     0.5986113174
N      3.0128084007     0.0250091164     0.8756985149
O      3.5823037740    -0.9455579345     0.4558392967
O      3.4754495284     0.9995619866     1.4047200160
C     -0.4573261397    -1.2364733840     0.6190784682
H     -1.0041403242    -2.1710942245     0.6174762757
C      0.8997707428    -1.2189926623     0.6943413025
H      1.4899710928    -2.1199754513     0.7427498802
C     -1.2316213046     0.0049467100     0.5657585669
H     -1.6923642848     0.0868825257     1.5701476234
Br    -2.7330758604    -0.1498473062    -0.6141637906
15
attempt 1 | |g_proj| = 3.974e-03 | E = -3010.3394793863 Ha
C     -0.4607637014     1.2500943179     0.4744054099
C      0.8914686258     1.2591606466     0.5896862014
C      1.5318371060     0.0219408274     0.7091278151
H     -1.0116191340     2.1721854664     0.3599448257
H      1.4737315507     2.1694217996     0.5986844838
N      3.0135201394     0.0247133910     0.8773618361
O      3.5828449794    -0.9452988515     0.4550184496
O      3.4756199307     0.9993725013     1.4061628860
C     -0.4574886976    -1.2362833528     0.6195964566
H     -1.0041222256    -2.1712389110     0.6161617192
C      0.9002236349    -1.2186160068     0.6939144134
H      1.4901056831    -2.1199596946     0.7429473695
C     -1.2330030038     0.0047713273     0.5631326695
H     -1.6918388780     0.0873279354     1.5699028679
Br    -2.7345966817    -0.1500709172    -0.6106076895
15
attempt 2 | |g_proj| = 2.150e-03 | E = -3010.3394876633 Ha
C     -0.4606177228     1.2500313044     0.4740155004
C      0.8913955019     1.2593181014     0.5901146877
C      1.5316532281     0.0220390581     0.7093377224
H     -1.0116422144     2.1721980508     0.3609804087
H      1.4735203386     2.1693688386     0.5986392321
N      3.0129091175     0.0250895186     0.8760729471
O      3.5825465538    -0.9454407106     0.4556641015
O      3.4755285454     0.9993352463     1.4052275066
C     -0.4573737760    -1.2363735529     0.6189951596
H     -1.0040843297    -2.1711061081     0.6170735329
C      0.8996650922    -1.2190087537     0.6942810792
H      1.4900034630    -2.1199312237     0.7428173344
C     -1.2315567094     0.0049482705     0.5657446151
H     -1.6920108550     0.0870102822     1.5697587836
Br    -2.7340169016    -0.1499578428    -0.6132828924
