15
attempt 1 | |g_proj| = 1.229e-03 | E = -3010.3332091314 Ha
C     -1.7936914498     1.9482370388     0.7639429268
C     -0.3747742551     1.9891998973     0.7288270156
C      0.2745272191     0.8193301527     0.6976894033
C     -2.5079843209     0.7518927674     0.7741512571
H     -2.3332822672     2.8884141897     0.8006583856
H      0.1524703413     2.9289196832     0.7364287831
H     -3.5816649298     0.7723677979     0.8209576752
N      1.7490873567     0.8033442970     0.7613041411
O      2.2288851263    -0.1647390988     1.2945273397
O      2.3008554014     1.7520374189     0.2799991155
C     -1.8312020978    -0.4288877673     0.7011150150
H     -2.3528450229    -1.3739877654     0.6825760347
C     -0.3739574126    -0.4880371336     0.6161533975
H      0.0590004192    -1.2140094856     1.3034421755
Br     0.0310750263    -1.1996052842    -1.1720447200
