15
meta_th90_ph54 | OPTIMIZED | |g_proj|=1.129e-03 | E=-3010.3153202544 Ha
C     -0.9246308283     1.9973345452     0.9039958004
C      0.4623689001     1.9242844766     0.7806128179
C      1.1460637299     0.7100729526     0.7425692671
C      0.4911691511    -0.4651786068     0.7452390917
C     -1.6366912166     0.8456525503     0.8427175005
H     -1.4224282194     2.9509856009     0.9862925283
H      1.0356245728     2.8347531653     0.7160972716
H      1.0250854051    -1.4059693608     0.7112460557
H     -2.7177243538     0.8638935671     0.8574458049
N      2.6086332987     0.7068528663     0.5687460352
O      3.2619067261     0.1789811981     1.4276563348
O      2.9819911172     1.2092495827    -0.4582816273
C     -0.9748919203    -0.4561446546     0.6659890105
H     -1.4406516977    -1.2560879590     1.2259260984
Br    -1.2876579485    -0.8370809962    -1.2447943510
