15
attempt 1 | |g_proj| = 2.121e-03 | E = -3010.3383171377 Ha
C     -0.9344449110     2.0057441992     0.7912789599
C      0.4566247207     1.9365716580     0.6516262254
C      1.1430187452     0.7148504613     0.6827953396
C      0.4902581244    -0.4617458490     0.7547279124
C     -1.6387409055     0.8459179525     0.8582995506
H     -1.4264746029     2.9670987990     0.8293349601
H      1.0456589785     2.8392573593     0.5378996031
H      1.0335896683    -1.3995322862     0.7511798287
H     -2.7188711306     0.8536963295     0.9327519529
N      2.6265455695     0.7238029884     0.6192916909
O      3.1772701200    -0.3093010801     0.8891223213
O      3.1244166548     1.7639713952     0.2789000664
C     -0.9822649547    -0.4667021555     0.6915046070
H     -1.4149418616    -1.2303217619     1.3379324720
Br    -1.3734774975    -0.9817090775    -1.1351878469
15
attempt 2 | |g_proj| = 1.063e-03 | E = -3010.3383257069 Ha
C     -0.9341584579     2.0058255864     0.7918331025
C      0.4566743695     1.9363696589     0.6521216609
C      1.1431170904     0.7153825191     0.6830857707
C      0.4901855524    -0.4617241505     0.7519303218
C     -1.6383928776     0.8462475050     0.8575680344
H     -1.4269057329     2.9666648744     0.8305096131
H      1.0443931840     2.8392166675     0.5364899120
H      1.0331055827    -1.3998305626     0.7526058421
H     -2.7181748794     0.8538775931     0.9335939005
N      2.6264630034     0.7246713922     0.6198227710
O      3.1751228620    -0.3099433835     0.8882510975
O      3.1260725130     1.7638437385     0.2785665710
C     -0.9825705808    -0.4667317461     0.6920736902
H     -1.4164324271    -1.2302428751     1.3385947487
Br    -1.3703324831    -0.9820278805    -1.1355893884
