15
para_th54_ph144 | OPTIMIZED | |g_proj|=1.535e-03 | E=-3010.3375936116 Ha
C     -0.4697890494     1.2378550283     0.6482612552
C      0.8806891437     1.2535207077     0.7390080290
C      1.5249828322     0.0155242535     0.7447231986
H     -1.0290153853     2.1604997421     0.6412984207
H      1.4577157778     2.1663082198     0.7610531475
N      3.0131650867     0.0340674563     0.7819747705
O      3.5254606195    -0.9040371482     1.3290744855
O      3.5324752819     0.9914968986     0.2752959525
C     -0.4518790564    -1.2540605955     0.5528757439
H     -0.9890411153    -2.1905657577     0.4662984110
C      0.9007304624    -1.2293208023     0.6901988400
H      1.4944236891    -2.1277611919     0.7177696456
C     -1.2338314890    -0.0145608587     0.6020144565
H     -1.8266546120    -0.0750179727     1.5207215354
Br    -2.5635129032     0.0835724990    -0.8051282321
