15
meta_th72_ph252 | OPTIMIZED | |g_proj|=4.959e-03 | E=-3010.3228794312 Ha
C     -0.9058653146     2.0306557144     0.6638616521
C      0.4808200899     1.9421838642     0.7616319855
C      1.1537416019     0.7266597528     0.6247022233
C      0.4905107363    -0.4328067747     0.4572413043
C     -1.6289241926     0.8863655959     0.5267794747
H     -1.3932609518     2.9915578123     0.6961520710
H      1.0773488278     2.8263123681     0.9291726018
H      1.0210656465    -1.3682735866     0.3411054847
H     -2.7104283744     0.9109649504     0.4806439453
N      2.6265495353     0.7272566258     0.6656389090
O      3.1903013883    -0.0622937764    -0.0407100041
O      3.1130884124     1.5087897652     1.4364828367
C     -0.9701211734    -0.4256248622     0.5892874261
H     -1.0719718323    -0.6378407346     1.6744225455
Br    -1.8646876599    -1.8223076988    -0.3349547322
