15
attempt 1 | |g_proj| = 1.041e-03 | E = -3010.3377088200 Ha
C     -0.4579670442     1.2570168715     0.4959018407
C      0.8943887888     1.2572615935     0.5905625325
C      1.5384035258     0.0224336261     0.7194844489
H     -1.0073522062     2.1780010596     0.3670246932
H      1.4771180174     2.1606238149     0.5538992323
N      3.0060742495     0.0105819980     0.7899238440
O      3.5524925864    -0.6353638411    -0.0611683006
O      3.4762945575     0.6301815881     1.7039622361
C     -0.4584106151    -1.2117003601     0.7592209781
H     -1.0132064597    -2.1326207181     0.8285675580
C      0.8914949347    -1.2188147750     0.7906469731
H      1.4746145911    -2.1232683604     0.8631722776
C     -1.2382869571     0.0231603916     0.6272895502
H     -1.8950575238     0.1433486317     1.4969003394
Br    -2.4746811215    -0.2133210409    -0.8599484940
