15
meta_th45_ph234 | OPTIMIZED | |g_proj|=4.671e-03 | E=-3010.3462960920 Ha
C     -0.9106505757     2.0337682268     0.7121018743
C      0.4804950538     1.9471479125     0.8127902751
C      1.1552820097     0.7332792062     0.6513230559
C      0.4900555277    -0.4275945933     0.4605065801
C     -1.6304741880     0.8928142502     0.5189767718
H     -1.4024079983     2.9944604522     0.7709855524
H      1.0742306593     2.8325252997     0.9979960117
H      1.0262543018    -1.3617867299     0.3451415463
H     -2.7114810928     0.9155105320     0.4525203876
N      2.6398893183     0.7278342357     0.6557906976
O      3.1729345407    -0.2678657432     0.2463162409
O      3.1625080395     1.7199356062     1.0854788623
C     -0.9739668957    -0.4233376398     0.5581194468
H     -1.1168839647    -0.6936186925     1.6173115380
Br    -1.8476179956    -1.8214733074    -0.4139011168
