15
attempt 1 | |g_proj| = 1.335e-04 | E = -3010.3418144852 Ha
C     -0.9206649565     1.9944774179     0.7856117505
C      0.4685390390     1.9326070429     0.6574558669
C      1.1555985495     0.7068350068     0.6735051110
C      0.4972457842    -0.4670229170     0.7099763751
C     -1.6267745978     0.8339399898     0.8478641093
H     -1.4150382034     2.9512427299     0.8304800799
H      1.0567427040     2.8381406058     0.5576665707
H      1.0374421893    -1.4040539149     0.7134735301
H     -2.7066687429     0.8385734058     0.9302900107
N      2.6364610199     0.7369600767     0.6381637519
O      3.1964687947    -0.2359825922     1.0648799759
O      3.1294470295     1.7399442052     0.1900072206
C     -0.9756781437    -0.4751511348     0.6725977058
H     -1.3863422238    -1.2437268132     1.3282243057
Br    -1.5386115127    -0.9451841309    -1.1287386759
