15
ortho_th9_ph18 | OPTIMIZED | |g_proj|=1.548e-03 | E=-3010.3527424656 Ha
C     -1.7956912820     1.9527212712     0.7495077794
C     -0.3786063520     1.9928332659     0.7121238517
C      0.2856080873     0.8251825013     0.6610703395
C     -2.5236913880     0.7624919585     0.7541654427
H     -2.3311149386     2.8949116738     0.7946023769
H      0.1592234962     2.9304777486     0.7433855854
H     -3.6036170454     0.7839191228     0.7979120274
N      1.7741565000     0.8273018458     0.7264893746
O      2.2920679626    -0.2530510307     0.8510662237
O      2.3093705070     1.9004170557     0.6587077783
C     -1.8465780740    -0.4212772736     0.6909360847
H     -2.3742803858    -1.3675365719     0.6743233607
C     -0.3807356436    -0.4835307310     0.6130154633
H      0.0205305628    -1.1373578340     1.3884625006
Br     0.0398571363    -1.4230263037    -1.0260402526
