15
attempt 1 | |g_proj| = 1.036e-04 | E = -3010.3448313611 Ha
C     -0.9166330653     2.0013118978     0.7728187224
C      0.4754680800     1.9405761895     0.6752237135
C      1.1582886702     0.7117511483     0.6683802526
C      0.4973949572    -0.4620447811     0.6751418381
C     -1.6227114497     0.8403582075     0.8142246212
H     -1.4094738161     2.9588435891     0.8165532639
H      1.0668266635     2.8477005649     0.6105260237
H      1.0355791203    -1.4000029736     0.6635168986
H     -2.7026104658     0.8448888038     0.8855321086
N      2.6399898957     0.7409440602     0.6433015311
O      3.1928988630    -0.2605561494     1.0076065015
O      3.1401039826     1.7726390566     0.2752057096
C     -0.9737090781    -0.4708583103     0.6660737188
H     -1.3571724555    -1.2087602414     1.3727133813
Br    -1.6160731714    -1.0551920795    -1.0753605924
