15
attempt 1 | |g_proj| = 3.790e-03 | E = -3010.3254980007 Ha
C     -0.4718275504     1.2355921638     0.7600506898
C      0.8758508798     1.2497186142     0.7940844535
C      1.5183319082     0.0092353190     0.7362693284
H     -1.0312743502     2.1548318375     0.8101350915
H      1.4569338211     2.1584401195     0.8271435404
N      2.9908546898     0.0315156202     0.7174992303
O      3.5181149368    -0.6858601071     1.5219937669
O      3.4784984037     0.7791216790    -0.0858239030
C     -0.4580832530    -1.2543002346     0.5878181696
H     -0.9993704424    -2.1865861420     0.4867302483
C      0.8952490035    -1.2335462531     0.6795132472
H      1.4878278351    -2.1305386425     0.6727563658
C     -1.2371222759    -0.0132041631     0.6535950322
H     -1.9546475349    -0.0884044122     1.4722386061
Br    -2.3034168066     0.1215050789    -0.9685642312
15
attempt 2 | |g_proj| = 2.248e-03 | E = -3010.3255278732 Ha
C     -0.4711225710     1.2337989459     0.7629376802
C      0.8778766196     1.2531067618     0.7894676298
C      1.5188081742     0.0119661061     0.7333465210
H     -1.0283924843     2.1550972804     0.8092200674
H      1.4562240270     2.1657020048     0.8249207711
N      2.9931907813     0.0328161768     0.7183574544
O      3.5163778461    -0.6881134250     1.5224666337
O      3.4874951304     0.7812740837    -0.0800682964
C     -0.4582533376    -1.2579925410     0.5930210936
H     -0.9995954110    -2.1910949800     0.4902418724
C      0.8957261602    -1.2331276913     0.6792261177
H      1.4844056332    -2.1340963747     0.6688489561
C     -1.2391595910    -0.0160146787     0.6510806219
H     -1.9557743661    -0.0914879995     1.4701456068
Br    -2.3118873427     0.1256868083    -0.9677730893
15
attempt 3 | |g_proj| = 1.268e-03 | E = -3010.3255330305 Ha
C     -0.4709664545     1.2338313506     0.7611746972
C      0.8778160343     1.2523280833     0.7893719840
C      1.5192274202     0.0116409175     0.7327073166
H     -1.0285632786     2.1546378882     0.8095236441
H      1.4551677514     2.1650169269     0.8239339966
N      2.9936422349     0.0324432502     0.7184649756
O      3.5157312826    -0.6888560790     1.5228898450
O      3.4885105445     0.7820934031    -0.0786523692
C     -0.4583269788    -1.2572903777     0.5912877090
H     -0.9988260159    -2.1911155493     0.4916442923
C      0.8954482489    -1.2327633411     0.6788049814
H      1.4842492815    -2.1332083900     0.6685632813
C     -1.2387875242    -0.0155888546     0.6517435560
H     -1.9561077050    -0.0917672140     1.4701197843
Br    -2.3122955692     0.1261184636    -0.9661380492
