15
attempt 1 | |g_proj| = 6.997e-04 | E = -3010.3357589599 Ha
C     -0.8996022895     2.0276895572     0.6559362594
C      0.4902559787     1.9498871877     0.7642303903
C      1.1604798272     0.7276797647     0.6267488608
C      0.4855496524    -0.4233273292     0.4364122411
C     -1.6265217700     0.8836379826     0.5231114005
H     -1.3856636048     2.9861930515     0.6879923385
H      1.0844615505     2.8389078217     0.9400146552
H      1.0127438074    -1.3541660774     0.2906024717
H     -2.7084274207     0.9036916343     0.4835810019
N      2.6356240285     0.7289854371     0.6873431318
O      3.1960123670    -0.0659417175    -0.0151568464
O      3.1227110912     1.5294656233     1.4437943875
C     -0.9735077991    -0.4277169282     0.5826289542
H     -1.0895584908    -0.6506934949     1.6629413196
Br    -1.8963901862    -1.8526934882    -0.2987228338
