15
meta_th45_ph252 | OPTIMIZED | |g_proj|=4.650e-03 | E=-3010.3468389763 Ha
C     -0.9124218295     2.0353546266     0.7003725075
C      0.4789450820     1.9461212116     0.8072602449
C      1.1544960095     0.7297341369     0.6413071566
C      0.4902815244    -0.4297828516     0.4405180444
C     -1.6288277695     0.8928575819     0.5063288454
H     -1.4044538881     2.9960757730     0.7601557857
H      1.0707419898     2.8325421202     1.0011989059
H      1.0282886165    -1.3620785928     0.3134410508
H     -2.7094059133     0.9149798119     0.4453763891
N      2.6399471893     0.7244115085     0.6640194215
O      3.1816257248    -0.2361088528     0.1869835434
O      3.1496658856     1.6828058108     1.1810421236
C     -0.9709695380    -0.4206696740     0.5504236053
H     -1.0917880641    -0.6551276905     1.6235132889
Br    -1.8679582771    -1.8495158950    -0.3504831804
