15
attempt 1 | |g_proj| = 1.466e-03 | E = -3010.3534834764 Ha
C     -1.7924059492     1.9559917704     0.7430877864
C     -0.3740308434     1.9889503550     0.7233080976
C      0.2934087322     0.8250354479     0.6429966007
C     -2.5226373020     0.7717199054     0.7097955581
H     -2.3227371824     2.8997643095     0.7963860048
H      0.1665142838     2.9238859780     0.7812257475
H     -3.6033506443     0.7921573677     0.7231247351
N      1.7828920598     0.8480056963     0.7020246510
O      2.3314461712    -0.2135721393     0.5577444463
O      2.2915214911     1.9203198407     0.8895406604
C     -1.8440616922    -0.4145168933     0.6830591730
H     -2.3747333652    -1.3584480158     0.7009782039
C     -0.3780615159    -0.4830882182     0.6384535216
H      0.0155085662    -1.1024547344     1.4395761014
Br    -0.0227737606    -1.5692738597    -0.9415732405
