15
para_th36_ph216 | OPTIMIZED | |g_proj|=9.526e-04 | E=-3010.3487698848 Ha
C     -0.4701156952     1.2477212137     0.4359258612
C      0.8830145906     1.2488883944     0.5996664042
C      1.5259964221     0.0183461814     0.7237752477
H     -1.0238920962     2.1734801548     0.3350966232
H      1.4628189958     2.1586326534     0.6178808090
N      3.0137606269     0.0327984798     0.9103329240
O      3.5774524934    -1.0137232777     0.7367620240
O      3.4852131103     1.0885881208     1.2356437158
C     -0.4485408642    -1.2434830463     0.5251383402
H     -0.9891521238    -2.1789667423     0.4862016361
C      0.9037465262    -1.2273549982     0.6720912392
H      1.4978185371    -2.1287366134     0.7181940882
C     -1.2255925260    -0.0022625044     0.5340542238
H     -1.5553785980     0.0512526012     1.5866061706
Br    -2.8712300934    -0.0776601388    -0.4519296201
