15
attempt 1 | |g_proj| = 1.053e-04 | E = -3010.3367798317 Ha
C     -0.9096392730     1.9922976327     0.7913079632
C      0.4774020300     1.9332289106     0.6696218862
C      1.1583368568     0.7009520607     0.6659196788
C      0.4954838500    -0.4681115521     0.6859311926
C     -1.6173242133     0.8312634818     0.8407952522
H     -1.4007709950     2.9476103212     0.8451086778
H      1.0672500255     2.8398813422     0.5892233023
H      1.0290250351    -1.4062836669     0.6887199564
H     -2.6951604187     0.8360387331     0.9287445678
N      2.6343538257     0.7376140907     0.6415433435
O      3.1911084566    -0.1685582509     1.1974133387
O      3.1270988558     1.6847940981     0.0836470463
C     -0.9744404817    -0.4766178104     0.6644489890
H     -1.3830438795    -1.2479812709     1.3175652776
Br    -1.5915129520    -0.9345291696    -1.1385328121
