15
attempt 1 | |g_proj| = 6.237e-04 | E = -3010.3449549263 Ha
C     -1.7884750303     1.9550168057     0.7007478653
C     -0.3675361991     1.9860071357     0.7145944155
C      0.2991053057     0.8219866753     0.6756762526
C     -2.5120995877     0.7691877865     0.6835243809
H     -2.3210846112     2.8996980277     0.7162347567
H      0.1678421133     2.9215234816     0.7718882988
H     -3.5909274339     0.7893479934     0.6797924676
N      1.7847701264     0.8423496981     0.7281066098
O      2.3343113573    -0.2040263242     0.4970099647
O      2.2863479691     1.8937417337     1.0198596549
C     -1.8286132535    -0.4126406706     0.7321173638
H     -2.3547671660    -1.3542918682     0.7918645045
C     -0.3650617529    -0.4870854660     0.6666922493
H      0.0733763562    -1.1476089456     1.4134775617
Br    -0.1706891328    -1.4887292670    -1.0018583114
