15
attempt 1 | |g_proj| = 8.880e-04 | E = -3010.3321279302 Ha
C     -0.9169028378     2.0304080627     0.7362054452
C      0.4835034209     1.9667963503     0.6932996071
C      1.1464711540     0.7333498739     0.6666275000
C      0.4759947209    -0.4348760242     0.7042376648
C     -1.6244316337     0.8747483116     0.7519893142
H     -1.3989179578     2.9932160909     0.7518693732
H      1.0772539604     2.8748616944     0.6790940819
H      1.0035989385    -1.3761307690     0.6856604676
H     -2.7012585977     0.8895131256     0.7805353398
N      2.6248086128     0.7136585828     0.6041555907
O      3.1079255433    -0.3634273766     0.3957405763
O      3.1800584407     1.7692573367     0.7556579637
C     -0.9858995526    -0.4452598047     0.7169365711
H     -1.3759085411    -1.0948744543     1.5049993679
Br    -1.4881289351    -1.3296419993    -0.9555511536
