15
attempt 1 | |g_proj| = 3.390e-03 | E = -3010.3263282135 Ha
C     -0.4647217765     1.2621724344     0.6016982129
C      0.8823693709     1.2646168304     0.6181157273
C      1.5165266901     0.0157218744     0.7253978890
H     -1.0162525751     2.1807903711     0.4952954992
H      1.4768417887     2.1629719678     0.5539581293
N      2.9800251764     0.0059604448     0.7011671122
O      3.4598612213    -0.5232621615    -0.2631461252
O      3.5073750160     0.5464280784     1.6339403441
C     -0.4800555455    -1.2132165160     0.8678002320
H     -1.0386308772    -2.1339546812     0.9616930091
C      0.8749985597    -1.2135169911     0.8475126372
H      1.4557002011    -2.1157375892     0.9227127039
C     -1.2492245223     0.0214209101     0.6748712432
H     -2.0603272239     0.1023787061     1.4008853536
Br    -2.0785661915    -0.2152532005    -1.0764622729
15
attempt 2 | |g_proj| = 1.248e-03 | E = -3010.3265564169 Ha
C     -0.4612418017     1.2639920407     0.6129772190
C      0.8847672930     1.2678194040     0.6548914293
C      1.5164769099     0.0153156945     0.7395144035
H     -1.0061464620     2.1868706248     0.5165483440
H      1.4786626845     2.1688629863     0.6165303817
N      2.9818818402     0.0084522098     0.6764617892
O      3.4346259952    -0.5459491462    -0.2869006368
O      3.5381648918     0.5788071250     1.5735636336
C     -0.4875481514    -1.2106968061     0.8773537190
H     -1.0480998758    -2.1311228364     0.9769748925
C      0.8690629742    -1.2103968922     0.8630198606
H      1.4405974541    -2.1173776364     0.9375944106
C     -1.2501213148     0.0230904307     0.6621070648
H     -2.0892091864     0.1074020363     1.3535603189
Br    -2.0359539349    -0.2575487567    -1.1087571304
