15
ortho_th9_ph108 | OPTIMIZED | |g_proj|=2.081e-03 | E=-3010.3496893739 Ha
C     -1.7946910773     1.9495707336     0.7449903118
C     -0.3781377403     1.9907789626     0.7149373200
C      0.2860399630     0.8226511592     0.6768786365
C     -2.5233391907     0.7590145735     0.7578320558
H     -2.3310120374     2.8918072108     0.7774928363
H      0.1598898335     2.9285287871     0.7419102423
H     -3.6032472445     0.7817806003     0.8009320686
N      1.7744986730     0.8234511644     0.7315981186
O      2.2902134182    -0.2513988170     0.9044661824
O      2.3114581331     1.8914278934     0.6148542656
C     -1.8467759880    -0.4242649840     0.7016903347
H     -2.3753859082    -1.3697124789     0.6813466830
C     -0.3800140661    -0.4860386676     0.6139973858
H      0.0278153700    -1.1514963528     1.3779164010
Br     0.0291869730    -1.3716230490    -1.0511148694
