15
para_th27_ph324 | OPTIMIZED | |g_proj|=2.567e-03 | E=-3010.3419058639 Ha
C     -0.4673285744     1.2483088816     0.4806745038
C      0.8864015754     1.2576274992     0.5994674774
C      1.5288225743     0.0221317389     0.7068972652
H     -1.0208821736     2.1720472581     0.3782064801
H      1.4645021435     2.1704753142     0.6176659426
N      3.0134432823     0.0314177784     0.8867719687
O      3.5797584264    -0.9909858773     0.6076109856
O      3.4824945775     1.0636983567     1.2832354899
C     -0.4541098365    -1.2439192808     0.5874603447
H     -0.9966875212    -2.1815017458     0.5694344959
C      0.9030189649    -1.2217892210     0.6760208217
H      1.4965465573    -2.1217546185     0.7236681575
C     -1.2293109950    -0.0023714285     0.5529028264
H     -1.6559200891     0.0584878688     1.5741754249
Br    -2.7648295841    -0.1143520451    -0.5787524700
