15
attempt 1 | |g_proj| = 4.594e-03 | E = -3010.3341074445 Ha
C     -1.7924676183     1.9350334941     0.7445868138
C     -0.3824335160     1.9845412064     0.7274531899
C      0.2836632212     0.8156484267     0.7464246817
C     -2.5199984567     0.7406796968     0.7934990907
H     -2.3376547506     2.8712173442     0.7309470306
H      0.1484669330     2.9228595145     0.7126588375
H     -3.5988902534     0.7660859794     0.8440553873
N      1.7599928117     0.7823128345     0.7836701012
O      2.2357707020    -0.1481088424     1.3838775227
O      2.3271975112     1.6709967475     0.2121202485
C     -1.8416459710    -0.4343574292     0.7351803314
H     -2.3642429409    -1.3786736502     0.7061806534
C     -0.3753794684    -0.4879315637     0.6111586133
H      0.0688374724    -1.2396923216     1.2671735978
Br     0.0352834462    -1.0161347151    -1.2092581404
15
attempt 2 | |g_proj| = 2.673e-03 | E = -3010.3341182158 Ha
C     -1.7927538606     1.9344127119     0.7440610500
C     -0.3815832141     1.9839830417     0.7277390656
C      0.2834959214     0.8153828707     0.7452508683
C     -2.5200633783     0.7402033760     0.7935636849
H     -2.3376158221     2.8709764727     0.7305736728
H      0.1485172014     2.9228166678     0.7128879999
H     -3.5988712842     0.7658721386     0.8442312337
N      1.7607721896     0.7827247518     0.7847214008
O      2.2359027156    -0.1476738039     1.3856090006
O      2.3277865263     1.6703789016     0.2110427291
C     -1.8411328504    -0.4348407864     0.7348014157
H     -2.3646936431    -1.3787331671     0.7066425607
C     -0.3761375392    -0.4870331330     0.6134001593
H      0.0688989299    -1.2390788962     1.2667842098
Br     0.0339772263    -1.0149144197    -1.2115810872
