15
ortho_th63_ph0 | OPTIMIZED | |g_proj|=4.087e-03 | E=-3010.3352069477 Ha
C     -1.7906224254     1.9446850322     0.7118905381
C     -0.3667516665     1.9934961382     0.7075489559
C      0.2815129832     0.8265553022     0.7006879254
C     -2.5031382655     0.7549745457     0.7514541201
H     -2.3264231114     2.8849571195     0.6955798801
H      0.1624227731     2.9355651182     0.7065402422
H     -3.5776022930     0.7682180652     0.7642995462
N      1.7586594606     0.8207112744     0.7687561475
O      2.2620262727    -0.2663249356     0.8873571318
O      2.2950116238     1.8905367510     0.6973899486
C     -1.8238903822    -0.4336737248     0.7506630545
H     -2.3397259554    -1.3843159593     0.7933193317
C     -0.3687442438    -0.4860241311     0.6628273926
H      0.0778462688    -1.2183641783     1.3290013970
Br    -0.0940818922    -1.2465197234    -1.1375876799
