15
attempt 1 | |g_proj| = 2.949e-03 | E = -3010.3470612290 Ha
C     -1.7953195286     1.9469952232     0.7437659784
C     -0.3796504724     1.9901938891     0.7096160422
C      0.2840890594     0.8215114411     0.6865788279
C     -2.5234564420     0.7555208951     0.7709883000
H     -2.3332179688     2.8886098305     0.7689934804
H      0.1575152746     2.9282132805     0.7247460918
H     -3.6029979239     0.7790654290     0.8218419542
N      1.7708185502     0.8141647256     0.7440192607
O      2.2762843210    -0.2500092902     0.9968709592
O      2.3165738608     1.8647499962     0.5444072560
C     -1.8472057020    -0.4266294598     0.7079833407
H     -2.3745140924    -1.3721296219     0.6841712693
C     -0.3809605828    -0.4861533113     0.6123348217
H      0.0315821625    -1.1698197241     1.3583747074
Br     0.0469585842    -1.2998065533    -1.0849643032
15
attempt 2 | |g_proj| = 2.949e-03 | E = -3010.3470612049 Ha
C     -1.7953195294     1.9469952241     0.7437659788
C     -0.3796504726     1.9901938900     0.7096160425
C      0.2840890595     0.8215114415     0.6865788282
C     -2.5234564432     0.7555208955     0.7709883004
H     -2.3332179699     2.8886098319     0.7689934808
H      0.1575152747     2.9282132819     0.7247460921
H     -3.6029979256     0.7790654294     0.8218419546
N      1.7708185510     0.8141647260     0.7440192611
O      2.2762843221    -0.2500092903     0.9968709597
O      2.3165738619     1.8647499971     0.5444072563
C     -1.8472057029    -0.4266294600     0.7079833410
H     -2.3745140935    -1.3721296225     0.6841712696
C     -0.3809605830    -0.4861533115     0.6123348220
H      0.0315821625    -1.1698197247     1.3583747080
Br     0.0469585842    -1.2998065539    -1.0849643037
15
attempt 3 | |g_proj| = 2.949e-03 | E = -3010.3470612392 Ha
C     -1.7953195302     1.9469952250     0.7437659792
C     -0.3796504728     1.9901938909     0.7096160428
C      0.2840890596     0.8215114419     0.6865788285
C     -2.5234564444     0.7555208959     0.7709883008
H     -2.3332179710     2.8886098333     0.7689934812
H      0.1575152748     2.9282132833     0.7247460924
H     -3.6029979273     0.7790654298     0.8218419550
N      1.7708185518     0.8141647264     0.7440192615
O      2.2762843232    -0.2500092904     0.9968709602
O      2.3165738630     1.8647499980     0.5444072566
C     -1.8472057038    -0.4266294602     0.7079833413
H     -2.3745140946    -1.3721296231     0.6841712699
C     -0.3809605832    -0.4861533117     0.6123348223
H      0.0315821625    -1.1698197253     1.3583747086
Br     0.0469585842    -1.2998065545    -1.0849643042
15
attempt 4 | |g_proj| = 2.949e-03 | E = -3010.3470612241 Ha
C     -1.7953195310     1.9469952259     0.7437659796
C     -0.3796504730     1.9901938918     0.7096160431
C      0.2840890597     0.8215114423     0.6865788288
C     -2.5234564456     0.7555208963     0.7709883012
H     -2.3332179721     2.8886098347     0.7689934816
H      0.1575152749     2.9282132847     0.7247460927
H     -3.6029979290     0.7790654302     0.8218419554
N      1.7708185526     0.8141647268     0.7440192619
O      2.2762843243    -0.2500092905     0.9968709607
O      2.3165738641     1.8647499989     0.5444072569
C     -1.8472057047    -0.4266294604     0.7079833416
H     -2.3745140957    -1.3721296237     0.6841712702
C     -0.3809605834    -0.4861533119     0.6123348226
H      0.0315821625    -1.1698197259     1.3583747092
Br     0.0469585842    -1.2998065551    -1.0849643047
15
attempt 5 | |g_proj| = 2.949e-03 | E = -3010.3470612102 Ha
C     -1.7953195318     1.9469952268     0.7437659800
C     -0.3796504732     1.9901938927     0.7096160434
C      0.2840890598     0.8215114427     0.6865788291
C     -2.5234564468     0.7555208967     0.7709883016
H     -2.3332179732     2.8886098361     0.7689934820
H      0.1575152750     2.9282132861     0.7247460930
H     -3.6029979307     0.7790654306     0.8218419558
N      1.7708185534     0.8141647272     0.7440192623
O      2.2762843254    -0.2500092906     0.9968709612
O      2.3165738652     1.8647499998     0.5444072572
C     -1.8472057056    -0.4266294606     0.7079833419
H     -2.3745140968    -1.3721296243     0.6841712705
C     -0.3809605836    -0.4861533121     0.6123348229
H      0.0315821625    -1.1698197265     1.3583747098
Br     0.0469585842    -1.2998065557    -1.0849643052
15
attempt 6 | |g_proj| = 2.949e-03 | E = -3010.3470612187 Ha
C     -1.7953195326     1.9469952277     0.7437659804
C     -0.3796504734     1.9901938936     0.7096160437
C      0.2840890599     0.8215114431     0.6865788294
C     -2.5234564480     0.7555208971     0.7709883020
H     -2.3332179743     2.8886098375     0.7689934824
H      0.1575152751     2.9282132875     0.7247460933
H     -3.6029979324     0.7790654310     0.8218419562
N      1.7708185542     0.8141647276     0.7440192627
O      2.2762843265    -0.2500092907     0.9968709617
O      2.3165738663     1.8647500007     0.5444072575
C     -1.8472057065    -0.4266294608     0.7079833422
H     -2.3745140979    -1.3721296249     0.6841712708
C     -0.3809605838    -0.4861533123     0.6123348232
H      0.0315821625    -1.1698197271     1.3583747104
Br     0.0469585842    -1.2998065563    -1.0849643057
15
attempt 1 | |g_proj| = 2.949e-03 | E = -3010.3470612365 Ha
C     -1.7953204543     1.9469961071     0.7437679896
C     -0.3796498374     1.9901940701     0.7096165718
C      0.2840880109     0.8215114540     0.6865728490
C     -2.5234565290     0.7555218082     0.7709890388
H     -2.3332184398     2.8886109246     0.7689950488
H      0.1575152962     2.9282138874     0.7247463265
H     -3.6029980814     0.7790660787     0.8218421653
N      1.7708183791     0.8141659542     0.7440200990
O      2.2762840746    -0.2500109339     0.9968634721
O      2.3165732256     1.8647513487     0.5444118612
C     -1.8472050717    -0.4266290456     0.7079787485
H     -2.3745135997    -1.3721296697     0.6841706040
C     -0.3809619346    -0.4861514743     0.6123408878
H      0.0315809606    -1.1698190441     1.3583741101
Br     0.0469631008    -1.2998147155    -1.0849617859
