15
attempt 1 | |g_proj| = 3.726e-03 | E = -3010.3338172469 Ha
C     -1.7789965205     1.9253923444     0.7105297272
C     -0.3667623831     1.9799062722     0.7225866957
C      0.2949448307     0.8127581471     0.7398136219
C     -2.5067531255     0.7372797526     0.7731646089
H     -2.3180907607     2.8621160883     0.6692383587
H      0.1661180741     2.9204731765     0.7281463171
H     -3.5849234694     0.7582661804     0.8068318328
N      1.7744071442     0.8073817096     0.8039923423
O      2.2619593293    -0.1681892178     1.3171887595
O      2.3305189439     1.7734150445     0.3591392412
C     -1.8339202571    -0.4467190084     0.7703370079
H     -2.3616093941    -1.3925378439     0.7517129137
C     -0.3688707675    -0.4951776750     0.6195899771
H      0.1113999197    -1.2487823084     1.2456547443
Br    -0.1729224838    -1.0411058890    -1.2281981369
