15
para_th9_ph162 | OPTIMIZED | |g_proj|=4.180e-04 | E=-3010.3580335195 Ha
C     -0.4793288850     1.2421946354     0.4994188634
C      0.8765914739     1.2545729192     0.6395713515
C      1.5297766971     0.0248650190     0.7210995769
H     -1.0428402743     2.1654918140     0.4390332469
H      1.4502959250     2.1701441861     0.6770238916
N      3.0230867768     0.0471702025     0.8972814436
O      3.5561464038    -1.0249363727     0.9996251841
O      3.5335853184     1.1347025942     0.9224874347
C     -0.4427182270    -1.2523167069     0.5026865701
H     -0.9786533551    -2.1918355965     0.4423868058
C      0.9126325960    -1.2239333397     0.6455760513
H      1.5132156195    -2.1216721561     0.6888650179
C     -1.2271496909    -0.0163417162     0.5312131279
H     -1.6141563186    -0.0219775046     1.5653991490
Br    -2.8445647947    -0.0386074992    -0.5062280784
