15
attempt 1 | |g_proj| = 6.801e-03 | E = -3010.3398244674 Ha
C     -1.7886142349     1.9354398550     0.7391033621
C     -0.3750218725     1.9863818419     0.7160530966
C      0.2876121131     0.8187730277     0.7167944636
C     -2.5197643964     0.7460811862     0.7715084723
H     -2.3271526031     2.8741585079     0.7568835401
H      0.1577106683     2.9268005347     0.7206438613
H     -3.5983296385     0.7688394778     0.8310960059
N      1.7730325599     0.8075141853     0.7527682873
O      2.2677529822    -0.2228890445     1.1327195816
O      2.3262410814     1.8246794995     0.4336246256
C     -1.8472549058    -0.4358281922     0.7168343969
H     -2.3821389080    -1.3778996769     0.6806735345
C     -0.3789405997    -0.4881852311     0.6076890302
H      0.0393031198    -1.1764841999     1.3453445280
Br     0.0120637409    -1.2029050307    -1.1320088082
