15
attempt 1 | |g_proj| = 4.333e-03 | E = -3010.3303823086 Ha
C     -1.7913032389     1.9312200983     0.7524754342
C     -0.3834669636     1.9860224879     0.7284825645
C      0.2857223237     0.8180778049     0.7387271914
C     -2.5184797968     0.7347652019     0.7982591243
H     -2.3399459631     2.8642817276     0.7519244427
H      0.1417781614     2.9264745226     0.7224699791
H     -3.5964373247     0.7585079446     0.8657854238
N      1.7578011935     0.7765951083     0.7928735739
O      2.2096634875    -0.0648878787     1.5279476440
O      2.3428302228     1.5642562728     0.1044676568
C     -1.8378231738    -0.4349360382     0.7272984389
H     -2.3587840317    -1.3789199047     0.6988332009
C     -0.3723222091    -0.4838065082     0.5907588792
H      0.0790764548    -1.2382372155     1.2366198927
Br     0.0281899609    -0.9749368788    -1.2471954641
15
attempt 2 | |g_proj| = 2.281e-03 | E = -3010.3303950371 Ha
C     -1.7915091046     1.9308831742     0.7525260734
C     -0.3830330495     1.9854996480     0.7288146763
C      0.2858240986     0.8178571969     0.7376303602
C     -2.5183041519     0.7343255319     0.7987936433
H     -2.3400429190     2.8645748815     0.7512834980
H      0.1418808038     2.9262268376     0.7225822152
H     -3.5961951686     0.7584593475     0.8653696659
N      1.7583548447     0.7771308491     0.7939745011
O      2.2101256721    -0.0641765956     1.5293614062
O      2.3428223016     1.5633974930     0.1032379189
C     -1.8375733947    -0.4353726816     0.7262692169
H     -2.3590417903    -1.3791199800     0.6992243694
C     -0.3731299966    -0.4829361379     0.5936999096
H      0.0793420267    -1.2386163238     1.2362149889
Br     0.0269789266    -0.9736564913    -1.2492544567
