15
attempt 1 | |g_proj| = 3.815e-03 | E = -3010.3120105266 Ha
C     -0.9177178971     2.0229145445     0.7500579036
C      0.4755492495     1.9307513569     0.7129871444
C      1.1525835572     0.7090510915     0.6737332916
C      0.4846299134    -0.4568884812     0.6831548154
C     -1.6406222260     0.8790640814     0.7424116313
H     -1.4040699176     2.9855599731     0.7688055855
H      1.0829523785     2.8214441732     0.7069416976
H      1.0229693425    -1.3956039456     0.6563757520
H     -2.7224911108     0.9048852248     0.7568391595
N      2.6413076265     0.7206277847     0.5977458970
O      3.2058551674    -0.3306198674     0.4964628385
O      3.1325391296     1.8091755040     0.6502069152
C     -0.9891922987    -0.4429224360     0.7057379191
H     -1.3578588709    -1.0666778047     1.5175398207
Br    -1.5582673151    -1.2891622261    -0.9475426883
15
attempt 2 | |g_proj| = 5.563e-03 | E = -3010.3149961361 Ha
C     -0.9072138799     2.0387737965     0.6319130946
C      0.4848406526     1.9475400131     0.6608897339
C      1.1589945443     0.7255982021     0.6051233133
C      0.4948216172    -0.4424278544     0.4894418003
C     -1.6249495263     0.8894927352     0.6171065690
H     -1.4010642190     2.9997337405     0.6400138276
H      1.0796545541     2.8451122669     0.7217421600
H      1.0276103155    -1.3827606465     0.3915080721
H     -2.7042348526     0.9246633788     0.6628364058
N      2.6380520966     0.7244439378     0.6954702001
O      3.2322248854     0.0099628513    -0.0657149915
O      3.0818752782     1.4218262397     1.5693078327
C     -0.9714438075    -0.4310639005     0.6322865440
H     -1.1129996928    -0.7594068410     1.6801779600
Br    -1.8680012360    -1.7098889418    -0.4606448340
15
attempt 3 | |g_proj| = 5.617e-03 | E = -3010.3151817420 Ha
C     -0.9036869198     2.0372951480     0.6410982098
C      0.4871989371     1.9488805047     0.6853089391
C      1.1534019326     0.7268065229     0.6001008909
C      0.4872679552    -0.4368891750     0.4847127402
C     -1.6257065247     0.8902994060     0.5986821246
H     -1.3843015105     3.0020775209     0.6438184072
H      1.0828698227     2.8453171257     0.7734440371
H      1.0114366182    -1.3787216673     0.3838591444
H     -2.7053689068     0.9072270646     0.6175245905
N      2.6250475892     0.7167298933     0.6798347289
O      3.2171016591    -0.0011587173    -0.0800171192
O      3.0621619119     1.4194681538     1.5529722060
C     -0.9708715386    -0.4241649949     0.6291723506
H     -1.0896401197    -0.7119772725     1.6937819846
Br    -1.8387441749    -1.7395905306    -0.4328355423
15
attempt 4 | |g_proj| = 3.755e-03 | E = -3010.3152271267 Ha
C     -0.9036653929     2.0395612330     0.6397755775
C      0.4866875658     1.9472348517     0.6855388583
C      1.1542204485     0.7265331398     0.6003295995
C      0.4898285480    -0.4381237496     0.4844523689
C     -1.6260113164     0.8921860453     0.5952281888
H     -1.3900220136     3.0027451811     0.6463880990
H      1.0803633520     2.8423433468     0.7779648880
H      1.0145662739    -1.3793276722     0.3823693925
H     -2.7077532207     0.9121284746     0.6136450056
N      2.6254237387     0.7180711681     0.6807893756
O      3.2174604789     0.0014026856    -0.0781338021
O      3.0712434165     1.4173312364     1.5502072942
C     -0.9694935483    -0.4245361726     0.6272498489
H     -1.0913645309    -0.7113948292     1.6922820288
Br    -1.8433170671    -1.7445559519    -0.4266290267
15
attempt 5 | |g_proj| = 2.740e-03 | E = -3010.3152331735 Ha
C     -0.9043732547     2.0393266952     0.6395577118
C      0.4862205215     1.9473314761     0.6858767516
C      1.1543713699     0.7265550323     0.6008038474
C      0.4896801631    -0.4381932788     0.4841700864
C     -1.6262108742     0.8919911222     0.5945369004
H     -1.3904336875     3.0026016704     0.6468048320
H      1.0804717972     2.8424192927     0.7789762071
H      1.0151522761    -1.3794610778     0.3821368930
H     -2.7073401196     0.9127908746     0.6127529810
N      2.6266321410     0.7180937520     0.6808047972
O      3.2174622484     0.0006843037    -0.0792147078
O      3.0718867100     1.4180077230     1.5507447237
C     -0.9699575559    -0.4243277731     0.6268527510
H     -1.0914854468    -0.7109437418     1.6918286805
Br    -1.8439095550    -1.7452770791    -0.4251747540
15
attempt 6 | |g_proj| = 2.740e-03 | E = -3010.3152331512 Ha
C     -0.9043732551     2.0393266962     0.6395577121
C      0.4862205217     1.9473314770     0.6858767519
C      1.1543713704     0.7265550326     0.6008038477
C      0.4896801633    -0.4381932790     0.4841700866
C     -1.6262108750     0.8919911226     0.5945369007
H     -1.3904336882     3.0026016718     0.6468048323
H      1.0804717977     2.8424192940     0.7789762075
H      1.0151522766    -1.3794610785     0.3821368932
H     -2.7073401209     0.9127908750     0.6127529813
N      2.6266321422     0.7180937523     0.6808047975
O      3.2174622499     0.0006843037    -0.0792147078
O      3.0718867115     1.4180077237     1.5507447244
C     -0.9699575564    -0.4243277733     0.6268527513
H     -1.0914854473    -0.7109437421     1.6918286813
Br    -1.8439095559    -1.7452770799    -0.4251747542
15
attempt 1 | |g_proj| = 3.772e-03 | E = -3010.3120105359 Ha
C     -0.9176877648     2.0229259709     0.7501140417
C      0.4755596484     1.9307735795     0.7130410221
C      1.1525298329     0.7090455284     0.6738146145
C      0.4846350817    -0.4569237758     0.6832620510
C     -1.6405666166     0.8790611230     0.7424796409
H     -1.4040491607     2.9855575082     0.7688382807
H      1.0829141352     2.8214985767     0.7069572806
H      1.0229694496    -1.3956468494     0.6565234515
H     -2.7224349149     0.9048583146     0.7568406309
N      2.6411882928     0.7206023987     0.5976997330
O      3.2057567587    -0.3306614181     0.4967566096
O      3.1324424190     1.8091551327     0.6496524387
C     -0.9891520920    -0.4429282365     0.7057842807
H     -1.3579104460    -1.0668342334     1.5174088345
Br    -1.5580278949    -1.2888846464    -0.9477152275
