15
meta_th81_ph234 | OPTIMIZED | |g_proj|=3.772e-03 | E=-3010.3120105359 Ha
C     -0.9176877648     2.0229259709     0.7501140417
C      0.4755596484     1.9307735795     0.7130410221
C      1.1525298329     0.7090455284     0.6738146145
C      0.4846350817    -0.4569237758     0.6832620510
C     -1.6405666166     0.8790611230     0.7424796409
H     -1.4040491607     2.9855575082     0.7688382807
H      1.0829141352     2.8214985767     0.7069572806
H      1.0229694496    -1.3956468494     0.6565234515
H     -2.7224349149     0.9048583146     0.7568406309
N      2.6411882928     0.7206023987     0.5976997330
O      3.2057567587    -0.3306614181     0.4967566096
O      3.1324424190     1.8091551327     0.6496524387
C     -0.9891520920    -0.4429282365     0.7057842807
H     -1.3579104460    -1.0668342334     1.5174088345
Br    -1.5580278949    -1.2888846464    -0.9477152275
