15
meta_th9_ph108 | OPTIMIZED | |g_proj|=1.180e-03 | E=-3010.3562775179 Ha
C     -0.9196985208     2.0223737701     0.7629757330
C      0.4786404074     1.9587198206     0.7265253534
C      1.1588054906     0.7330478266     0.6619477806
C      0.4961426205    -0.4412213390     0.5936228402
C     -1.6312135921     0.8644378636     0.7106902953
H     -1.4137382498     2.9814711781     0.8227581349
H      1.0755986606     2.8644409705     0.7463430260
H      1.0350247981    -1.3790375416     0.5273735029
H     -2.7146430505     0.8718755196     0.7270888101
N      2.6465170543     0.7452367074     0.6472178986
O      3.1849654160    -0.3273966347     0.6905642362
O      3.1649785039     1.8301548435     0.5978181710
C     -0.9737539270    -0.4489558266     0.6230327231
H     -1.2750347453    -1.0400329383     1.4960384204
Br    -1.7044241403    -1.4335152606    -0.8625392557
