15
ortho_th90_ph72 | OPTIMIZED | |g_proj|=4.099e-03 | E=-3010.3253148072 Ha
C     -1.7882368135     1.9383170881     0.8614595789
C     -0.3852201515     1.9883219732     0.8600368780
C      0.2914808535     0.8275587710     0.7334189296
C     -2.5151660081     0.7423385078     0.7560003737
H     -2.3390388798     2.8669670538     0.9436726123
H      0.1340055628     2.9260210779     0.9434764082
H     -3.5938183584     0.7680652051     0.7660013477
N      1.7535233670     0.7893338871     0.7369949626
O      2.2484846494     0.4545584248     1.7803709077
O      2.2799924358     1.0521975520    -0.3062942790
C     -1.8318389514    -0.4154949379     0.6277998108
H     -2.3452220204    -1.3562024957     0.5344748805
C     -0.3645142172    -0.4731588895     0.5589128602
H      0.0599352164    -1.2132206484     1.2376686751
Br     0.0421324388    -1.1111258478    -1.2442659873
