15
attempt 1 | |g_proj| = 3.960e-03 | E = -3010.3271256711 Ha
C     -1.7904649917     1.9406447677     0.8613803272
C     -0.3834015661     1.9889980940     0.8593715555
C      0.2879789150     0.8273387262     0.7362880712
C     -2.5149389928     0.7436719675     0.7550228663
H     -2.3414018466     2.8702775898     0.9434375066
H      0.1341781015     2.9275775354     0.9422078014
H     -3.5930483044     0.7690892922     0.7656926041
N      1.7526524003     0.7897844531     0.7386600385
O      2.2487963619     0.4484582240     1.7807653738
O      2.2741660316     1.0532587466    -0.3081240184
C     -1.8295843324    -0.4157067287     0.6313823335
H     -2.3413975966    -1.3566843631     0.5333570648
C     -0.3647182217    -0.4730517541     0.5594213586
H      0.0626498030    -1.2155341190     1.2358774677
Br     0.0450333699    -1.1136457191    -1.2450124010
15
attempt 2 | |g_proj| = 2.280e-03 | E = -3010.3271790989 Ha
C     -1.7901128547     1.9384199136     0.8622875158
C     -0.3836994434     1.9867834494     0.8588809900
C      0.2898929394     0.8275510456     0.7277553501
C     -2.5126495499     0.7422995453     0.7535345967
H     -2.3376464992     2.8700444169     0.9466053889
H      0.1281493554     2.9268315928     0.9497705654
H     -3.5893401412     0.7701531837     0.7685007988
N      1.7557982171     0.7924470337     0.7345122862
O      2.2441859843     0.4575337390     1.7816833671
O      2.2870019188     1.0544281134    -0.3071054458
C     -1.8290647713    -0.4170251848     0.6219255741
H     -2.3471147995    -1.3566232580     0.5372090802
C     -0.3642711737    -0.4739556536     0.5586941411
H      0.0555397387    -1.2157790140     1.2416596581
Br     0.0398302059    -1.1186322058    -1.2461859123
15
attempt 3 | |g_proj| = 2.280e-03 | E = -3010.3271791343 Ha
C     -1.7901128555     1.9384199145     0.8622875162
C     -0.3836994436     1.9867834503     0.8588809904
C      0.2898929395     0.8275510460     0.7277553504
C     -2.5126495511     0.7422995457     0.7535345971
H     -2.3376465003     2.8700444183     0.9466053893
H      0.1281493555     2.9268315942     0.9497705658
H     -3.5893401429     0.7701531841     0.7685007992
N      1.7557982179     0.7924470341     0.7345122865
O      2.2441859854     0.4575337392     1.7816833679
O      2.2870019199     1.0544281139    -0.3071054459
C     -1.8290647722    -0.4170251850     0.6219255744
H     -2.3471148006    -1.3566232586     0.5372090805
C     -0.3642711739    -0.4739556538     0.5586941414
H      0.0555397387    -1.2157790146     1.2416596587
Br     0.0398302059    -1.1186322063    -1.2461859129
15
attempt 4 | |g_proj| = 2.280e-03 | E = -3010.3271791333 Ha
C     -1.7901128563     1.9384199154     0.8622875166
C     -0.3836994438     1.9867834512     0.8588809908
C      0.2898929396     0.8275510464     0.7277553507
C     -2.5126495523     0.7422995461     0.7535345975
H     -2.3376465014     2.8700444197     0.9466053897
H      0.1281493556     2.9268315956     0.9497705662
H     -3.5893401446     0.7701531845     0.7685007996
N      1.7557982187     0.7924470345     0.7345122868
O      2.2441859865     0.4575337394     1.7816833687
O      2.2870019210     1.0544281144    -0.3071054460
C     -1.8290647731    -0.4170251852     0.6219255747
H     -2.3471148017    -1.3566232592     0.5372090808
C     -0.3642711741    -0.4739556540     0.5586941417
H      0.0555397387    -1.2157790152     1.2416596593
Br     0.0398302059    -1.1186322068    -1.2461859135
15
attempt 5 | |g_proj| = 2.280e-03 | E = -3010.3271791190 Ha
C     -1.7901128571     1.9384199163     0.8622875170
C     -0.3836994440     1.9867834521     0.8588809912
C      0.2898929397     0.8275510468     0.7277553510
C     -2.5126495535     0.7422995465     0.7535345979
H     -2.3376465025     2.8700444211     0.9466053901
H      0.1281493557     2.9268315970     0.9497705666
H     -3.5893401463     0.7701531849     0.7685008000
N      1.7557982195     0.7924470349     0.7345122871
O      2.2441859876     0.4575337396     1.7816833695
O      2.2870019221     1.0544281149    -0.3071054461
C     -1.8290647740    -0.4170251854     0.6219255750
H     -2.3471148028    -1.3566232598     0.5372090811
C     -0.3642711743    -0.4739556542     0.5586941420
H      0.0555397387    -1.2157790158     1.2416596599
Br     0.0398302059    -1.1186322073    -1.2461859141
15
attempt 6 | |g_proj| = 2.280e-03 | E = -3010.3271791106 Ha
C     -1.7901128579     1.9384199172     0.8622875174
C     -0.3836994442     1.9867834530     0.8588809916
C      0.2898929398     0.8275510472     0.7277553513
C     -2.5126495547     0.7422995469     0.7535345983
H     -2.3376465036     2.8700444225     0.9466053905
H      0.1281493558     2.9268315984     0.9497705670
H     -3.5893401480     0.7701531853     0.7685008004
N      1.7557982203     0.7924470353     0.7345122874
O      2.2441859887     0.4575337398     1.7816833703
O      2.2870019232     1.0544281154    -0.3071054462
C     -1.8290647749    -0.4170251856     0.6219255753
H     -2.3471148039    -1.3566232604     0.5372090814
C     -0.3642711745    -0.4739556544     0.5586941423
H      0.0555397387    -1.2157790164     1.2416596605
Br     0.0398302059    -1.1186322078    -1.2461859147
15
attempt 1 | |g_proj| = 3.960e-03 | E = -3010.3271255482 Ha
C     -1.7904628391     1.9406451372     0.8613808145
C     -0.3834002931     1.9889991322     0.8593712265
C      0.2879797615     0.8273396727     0.7362894902
C     -2.5149365027     0.7436717027     0.7550219127
H     -2.3414010746     2.8702773633     0.9434374676
H      0.1341774494     2.9275791111     0.9422076377
H     -3.5930459165     0.7690898539     0.7656931420
N      1.7526493297     0.7897833860     0.7386597575
O      2.2487909277     0.4484565165     1.7807660694
O      2.2741585519     1.0532606714    -0.3081249094
C     -1.8295821820    -0.4157062288     0.6313813926
H     -2.3413955203    -1.3566835479     0.5333563022
C     -0.3647166746    -0.4730505168     0.5594235249
H      0.0626502704    -1.2155370910     1.2358745211
Br     0.0450338435    -1.1136484498    -1.2450103994
15
attempt 2 | |g_proj| = 2.280e-03 | E = -3010.3271790942 Ha
C     -1.7901135470     1.9384206829     0.8622882309
C     -0.3837005045     1.9867833355     0.8588818982
C      0.2898921296     0.8275508076     0.7277524222
C     -2.5126497110     0.7422993791     0.7535340309
H     -2.3376462430     2.8700459262     0.9466082982
H      0.1281490475     2.9268308224     0.9497735709
H     -3.5893401478     0.7701537826     0.7685004734
N      1.7557997603     0.7924488379     0.7345105401
O      2.2441870658     0.4575363129     1.7816825587
O      2.2870066614     1.0544288585    -0.3071053614
C     -1.8290661884    -0.4170259388     0.6219242456
H     -2.3471167437    -1.3566238710     0.5372082175
C     -0.3642718395    -0.4739575990     0.5586918262
H      0.0555381270    -1.2157775208     1.2416629383
Br     0.0398312605    -1.1186370986    -1.2461859350
15
attempt 3 | |g_proj| = 2.280e-03 | E = -3010.3271790800 Ha
C     -1.7901135478     1.9384206838     0.8622882313
C     -0.3837005047     1.9867833364     0.8588818986
C      0.2898921297     0.8275508080     0.7277524225
C     -2.5126497122     0.7422993795     0.7535340313
H     -2.3376462441     2.8700459276     0.9466082986
H      0.1281490476     2.9268308238     0.9497735713
H     -3.5893401495     0.7701537830     0.7685004738
N      1.7557997611     0.7924488383     0.7345105404
O      2.2441870669     0.4575363131     1.7816825595
O      2.2870066625     1.0544288590    -0.3071053615
C     -1.8290661893    -0.4170259390     0.6219242459
H     -2.3471167448    -1.3566238716     0.5372082178
C     -0.3642718397    -0.4739575992     0.5586918265
H      0.0555381270    -1.2157775214     1.2416629389
Br     0.0398312605    -1.1186370991    -1.2461859356
15
attempt 4 | |g_proj| = 2.280e-03 | E = -3010.3271790655 Ha
C     -1.7901135486     1.9384206847     0.8622882317
C     -0.3837005049     1.9867833373     0.8588818990
C      0.2898921298     0.8275508084     0.7277524228
C     -2.5126497134     0.7422993799     0.7535340317
H     -2.3376462452     2.8700459290     0.9466082990
H      0.1281490477     2.9268308252     0.9497735717
H     -3.5893401512     0.7701537834     0.7685004742
N      1.7557997619     0.7924488387     0.7345105407
O      2.2441870680     0.4575363133     1.7816825603
O      2.2870066636     1.0544288595    -0.3071053616
C     -1.8290661902    -0.4170259392     0.6219242462
H     -2.3471167459    -1.3566238722     0.5372082181
C     -0.3642718399    -0.4739575994     0.5586918268
H      0.0555381270    -1.2157775220     1.2416629395
Br     0.0398312605    -1.1186370996    -1.2461859362
15
attempt 5 | |g_proj| = 2.280e-03 | E = -3010.3271790930 Ha
C     -1.7901135494     1.9384206856     0.8622882321
C     -0.3837005051     1.9867833382     0.8588818994
C      0.2898921299     0.8275508088     0.7277524231
C     -2.5126497146     0.7422993803     0.7535340321
H     -2.3376462463     2.8700459304     0.9466082994
H      0.1281490478     2.9268308266     0.9497735721
H     -3.5893401529     0.7701537838     0.7685004746
N      1.7557997627     0.7924488391     0.7345105410
O      2.2441870691     0.4575363135     1.7816825611
O      2.2870066647     1.0544288600    -0.3071053617
C     -1.8290661911    -0.4170259394     0.6219242465
H     -2.3471167470    -1.3566238728     0.5372082184
C     -0.3642718401    -0.4739575996     0.5586918271
H      0.0555381270    -1.2157775226     1.2416629401
Br     0.0398312605    -1.1186371001    -1.2461859368
15
attempt 6 | |g_proj| = 2.280e-03 | E = -3010.3271790959 Ha
C     -1.7901135502     1.9384206865     0.8622882325
C     -0.3837005053     1.9867833391     0.8588818998
C      0.2898921300     0.8275508092     0.7277524234
C     -2.5126497158     0.7422993807     0.7535340325
H     -2.3376462474     2.8700459318     0.9466082998
H      0.1281490479     2.9268308280     0.9497735725
H     -3.5893401546     0.7701537842     0.7685004750
N      1.7557997635     0.7924488395     0.7345105413
O      2.2441870702     0.4575363137     1.7816825619
O      2.2870066658     1.0544288605    -0.3071053618
C     -1.8290661920    -0.4170259396     0.6219242468
H     -2.3471167481    -1.3566238734     0.5372082187
C     -0.3642718403    -0.4739575998     0.5586918274
H      0.0555381270    -1.2157775232     1.2416629407
Br     0.0398312605    -1.1186371006    -1.2461859374
15
attempt 1 | |g_proj| = 3.961e-03 | E = -3010.3271256809 Ha
C     -1.7904634364     1.9406447887     0.8613797739
C     -0.3834009611     1.9889986538     0.8593703735
C      0.2879792541     0.8273390399     0.7362907715
C     -2.5149378235     0.7436718724     0.7550218040
H     -2.3414010081     2.8702767578     0.9434351801
H      0.1341766961     2.9275786718     0.9422046352
H     -3.5930473779     0.7690896547     0.7656930670
N      1.7526510329     0.7897837726     0.7386595227
O      2.2487949562     0.4484472491     1.7807617554
O      2.2741613329     1.0532684275    -0.3081234417
C     -1.8295836852    -0.4157063856     0.6313829800
H     -2.3413967920    -1.3566838579     0.5333581494
C     -0.3647175489    -0.4730517745     0.5594241797
H      0.0626477767    -1.2155367755     1.2358786425
Br     0.0450367155    -1.1136433823    -1.2450094433
