15
attempt 1 | |g_proj| = 2.011e-04 | E = -3010.3532393670 Ha
C     -0.9200904873     2.0145477292     0.7644019874
C      0.4765630533     1.9520042402     0.7033763908
C      1.1585798480     0.7250425950     0.6652091640
C      0.4975690477    -0.4506919908     0.6329815001
C     -1.6285716180     0.8543303114     0.7573621158
H     -1.4139731403     2.9736215646     0.8127697733
H      1.0716964355     2.8589546661     0.6867531542
H      1.0371963753    -1.3890000528     0.5911861676
H     -2.7109903361     0.8597897236     0.7986245172
N      2.6447502568     0.7458319150     0.6430353650
O      3.1913657845    -0.3118009915     0.8012745476
O      3.1540358495     1.8240359554     0.4792640026
C     -0.9733184958    -0.4588075254     0.6483922903
H     -1.3121464853    -1.1214832822     1.4490321788
Br    -1.6644993571    -1.2747758738    -0.9622054629
