15
ortho_th72_ph162 | OPTIMIZED | |g_proj|=6.898e-04 | E=-3010.3230189988 Ha
C     -1.7759419478     1.9327854056     0.7195226560
C     -0.3565040524     1.9836284396     0.7115818378
C      0.2898548496     0.8172066315     0.7061506737
C     -2.4959738746     0.7458333984     0.7593636037
H     -2.3094975607     2.8730885130     0.7115556012
H      0.1729649302     2.9249510089     0.7312616972
H     -3.5699272555     0.7625899370     0.7940776159
N      1.7670329269     0.8135037388     0.7911145010
O      2.2374455876    -0.1843156108     1.2734375671
O      2.3265191973     1.8083198976     0.4233533448
C     -1.8256384535    -0.4431997471     0.7538763834
H     -2.3518478499    -1.3903464043     0.7683980910
C     -0.3670900208    -0.4933272572     0.6188613268
H      0.1082511460    -1.2374626100     1.2540087424
Br    -0.2031485270    -1.1287785872    -1.2268356501
