15
attempt 1 | |g_proj| = 2.339e-03 | E = -3010.3602215315 Ha
C     -0.9168637572     2.0298348857     0.7472201223
C      0.4816490376     1.9619200256     0.7748326302
C      1.1573939008     0.7414839003     0.6443645988
C      0.4926413876    -0.4264265659     0.4919130251
C     -1.6320617376     0.8791545787     0.6075865257
H     -1.4103266751     2.9885149126     0.8264513614
H      1.0781087541     2.8594839330     0.8992976329
H      1.0316458281    -1.3600939895     0.3785540558
H     -2.7149388915     0.8922704695     0.5798074116
N      2.6463218867     0.7409568174     0.6631375600
O      3.1772800425    -0.3263354895     0.5137559775
O      3.1714254092     1.8113491890     0.8224292380
C     -0.9719795819    -0.4319854781     0.5581190031
H     -1.1724960417    -0.8444702349     1.5616538917
Br    -1.8096328206    -1.7140579394    -0.5976653104
15
attempt 2 | |g_proj| = 1.443e-03 | E = -3010.3602250905 Ha
C     -0.9168550442     2.0298462349     0.7476030855
C      0.4816206573     1.9619336535     0.7749139190
C      1.1573926383     0.7412430866     0.6447363672
C      0.4926226601    -0.4264188276     0.4914307775
C     -1.6321175378     0.8791968179     0.6069997075
H     -1.4103798049     2.9884536532     0.8267068489
H      1.0781323686     2.8596170087     0.8983230387
H      1.0315907586    -1.3601674626     0.3789477935
H     -2.7151286353     0.8921351011     0.5808075656
N      2.6462064367     0.7409987261     0.6626451144
O      3.1771153799    -0.3266651078     0.5151562799
O      3.1714993066     1.8115116531     0.8214938426
C     -0.9715772634    -0.4315019456     0.5599762569
H     -1.1727615801    -0.8448611545     1.5610746542
Br    -1.8091935983    -1.7137224180    -0.5993575231
