15
attempt 1 | |g_proj| = 1.135e-03 | E = -3010.3386491418 Ha
C     -0.5006727978     1.2273741989     0.7758927117
C      0.8565835002     1.2426130479     0.7496911084
C      1.5134480121     0.0146253025     0.7137782550
H     -1.0705364281     2.1472683348     0.8133218359
H      1.4276703067     2.1566876036     0.7583366826
N      3.0037425653     0.0516203910     0.7023255591
O      3.5540491623    -0.9076066245     1.1711105555
O      3.4926871200     1.0357128992     0.2160689737
C     -0.4573361390    -1.2646466935     0.6827804174
H     -0.9935089345    -2.2026031759     0.6551982279
C      0.8977808398    -1.2417906616     0.7050133657
H      1.5035756361    -2.1357888134     0.7236820176
C     -1.2546579941    -0.0275197582     0.6579915558
H     -2.0601851648    -0.0850681029     1.3953423171
Br    -2.1467204380     0.1366425297    -1.0550939693
