15
attempt 1 | |g_proj| = 2.045e-04 | E = -3010.3438651070 Ha
C     -0.9117311230     2.0082690952     0.7650925041
C      0.4822482561     1.9474596252     0.6968750251
C      1.1587531178     0.7153362683     0.6672301264
C      0.4950338648    -0.4569393643     0.6507656216
C     -1.6178357126     0.8477073525     0.7827960752
H     -1.4019991771     2.9665607508     0.8078632201
H      1.0758547523     2.8551761597     0.6658145513
H      1.0298808755    -1.3957591296     0.6289443724
H     -2.6969100335     0.8533862693     0.8398962506
N      2.6395897293     0.7396442679     0.6423029833
O      3.1840685347    -0.2786957136     0.9685120018
O      3.1448788349     1.7838650181     0.3198272555
C     -0.9728423572    -0.4654146449     0.6631088116
H     -1.3385125191    -1.1764975749     1.4061616020
Br    -1.6623103157    -1.1424994108    -1.0337327220
