15
ortho_th54_ph306 | OPTIMIZED | |g_proj|=2.919e-03 | E=-3010.3315421395 Ha
C     -1.7703149859     1.9514459807     0.6802882902
C     -0.3545582645     1.9795012869     0.6964915503
C      0.3047704932     0.8142719190     0.6522903911
C     -2.5112122177     0.7806949815     0.6648408417
H     -2.2915289870     2.8969794560     0.6904783529
H      0.1834876186     2.9151918476     0.7456348612
H     -3.5892531368     0.8043641591     0.6417828555
N      1.7856121226     0.8486994551     0.7040752847
O      2.3510214889     0.0301584822     0.0294973288
O      2.2641773075     1.7076840203     1.3957903254
C     -1.8460845269    -0.4109218141     0.7334871871
H     -2.3886622001    -1.3436562966     0.8221703549
C     -0.3804300030    -0.4899237912     0.6987771415
H      0.0024427484    -1.0880890815     1.5181211778
Br    -0.1129684184    -1.6119237859    -0.8839978876
