15
attempt 1 | |g_proj| = 5.797e-03 | E = -3010.3458596501 Ha
C     -1.7939910471     1.9447208092     0.7404602949
C     -0.3787419848     1.9890861790     0.7099030136
C      0.2850052512     0.8204749625     0.6956252825
C     -2.5228129644     0.7537785026     0.7692505813
H     -2.3316746136     2.8858441133     0.7648142903
H      0.1577475400     2.9277179927     0.7245261841
H     -3.6024355594     0.7774185922     0.8213648811
N      1.7723122048     0.8138295095     0.7431273296
O      2.2772178945    -0.2469342353     1.0106567495
O      2.3183522541     1.8631247724     0.5366509922
C     -1.8467422541    -0.4286774526     0.7133273943
H     -2.3762811635    -1.3731385287     0.6855994964
C     -0.3790053869    -0.4884061362     0.6082449105
H      0.0332961275    -1.1689336586     1.3581810874
Br     0.0342527977    -1.2854286675    -1.0920044966
15
attempt 2 | |g_proj| = 3.026e-03 | E = -3010.3458870777 Ha
C     -1.7940102945     1.9443599570     0.7404547155
C     -0.3784123592     1.9888169392     0.7108457853
C      0.2853556872     0.8205093570     0.6933306765
C     -2.5226863584     0.7533863872     0.7699583228
H     -2.3317043983     2.8857217207     0.7633527841
H      0.1576939899     2.9275057834     0.7245040025
H     -3.6022220871     0.7771732505     0.8211633874
N      1.7724085332     0.8140186135     0.7458652002
O      2.2776067092    -0.2467824603     1.0124114352
O      2.3183889416     1.8624313032     0.5344472690
C     -1.8466650218    -0.4288008653     0.7123565195
H     -2.3760315406    -1.3732883836     0.6864558533
C     -0.3801186573    -0.4870757379     0.6122038084
H      0.0340266079    -1.1699845771     1.3571766718
Br     0.0328693401    -1.2835145284    -1.0947984357
