15
attempt 1 | |g_proj| = 8.592e-04 | E = -3010.3220838159 Ha
C     -1.7753501337     1.9373706864     0.7500990311
C     -0.3568969445     1.9868819821     0.7214900771
C      0.2853033912     0.8190115859     0.6899091233
C     -2.4972882633     0.7502924971     0.7688875709
H     -2.3084242229     2.8773545746     0.7726025738
H      0.1742680085     2.9270899471     0.7440420875
H     -3.5707423890     0.7680199804     0.8100368286
N      1.7603337738     0.8105359410     0.7702901363
O      2.2190757862    -0.1539977092     1.3254444501
O      2.3280330717     1.7681144023     0.3248278409
C     -1.8315978390    -0.4395795997     0.7244853285
H     -2.3611027996    -1.3851109148     0.7098472268
C     -0.3718308711    -0.4914515967     0.6090761262
H      0.0867431515    -1.2154255616     1.2796996571
Br    -0.1340246166    -1.1746294703    -1.2110100751
