15
attempt 1 | |g_proj| = 1.401e-03 | E = -3010.3488032795 Ha
C     -0.4638629321     1.2494292694     0.4602473804
C      0.8895676323     1.2537477520     0.5933737319
C      1.5350852301     0.0208663914     0.7148760686
H     -1.0168164313     2.1725586335     0.3501222165
H      1.4716770716     2.1615843452     0.6002373548
N      3.0173164390     0.0272478602     0.8739412832
O      3.5913361856    -0.9441580561     0.4615272152
O      3.4773430243     0.9975864537     1.4129272238
C     -0.4502150159    -1.2330748561     0.6071996711
H     -0.9988062406    -2.1633062692     0.6114909636
C      0.9042411398    -1.2233173687     0.6970524652
H      1.4960883429    -2.1246720926     0.7436043262
C     -1.2292685786     0.0055114300     0.5680972970
H     -1.6933232205     0.0879222019     1.5651451148
Br    -2.7644433334    -0.1404052161    -0.5944026162
