15
ortho_th54_ph216 | OPTIMIZED | |g_proj|=7.103e-04 | E=-3010.3371821166 Ha
C     -1.7862668389     1.9541209527     0.6738980667
C     -0.3622932768     1.9836297423     0.7010367411
C      0.3041596429     0.8216326230     0.6840169146
C     -2.5045721962     0.7700689536     0.6639626329
H     -2.3201560729     2.8980684973     0.6733058295
H      0.1675916834     2.9203923697     0.7543147756
H     -3.5819508142     0.7888060893     0.6484213835
N      1.7844390324     0.8398346870     0.7385064642
O      2.3384356245    -0.1586750483     0.3556751120
O      2.2769789251     1.8399811381     1.1828426880
C     -1.8182536830    -0.4095100489     0.7575163230
H     -2.3443418496    -1.3462248096     0.8518618601
C     -0.3575997697    -0.4873615376     0.6933910580
H      0.0915660646    -1.1636777956     1.4186947060
Br    -0.2412374088    -1.4666090219    -1.0077165274
