15
attempt 1 | |g_proj| = 5.052e-03 | E = -3010.3325398698 Ha
C     -0.9374671408     2.0063096685     0.7833352650
C      0.4539782388     1.9338655009     0.6496014961
C      1.1409728874     0.7144058316     0.6817863047
C      0.4886779562    -0.4609058892     0.7623632032
C     -1.6423202905     0.8495856336     0.8509615245
H     -1.4297607917     2.9671873784     0.8255788408
H      1.0412382933     2.8366508538     0.5435787931
H      1.0346368771    -1.3969416041     0.7563109626
H     -2.7227304365     0.8651696204     0.9199727219
N      2.6253145213     0.7176890752     0.6140158172
O      3.1780793914    -0.3303562388     0.8120965670
O      3.1228899686     1.7756259115     0.3404392270
C     -0.9840762437    -0.4652546490     0.6963365122
H     -1.4143428604    -1.2092190246     1.3666422745
Br    -1.3469236544    -1.0022131405    -1.1315618712
15
attempt 2 | |g_proj| = 4.876e-03 | E = -3010.3327763534 Ha
C     -0.9350063501     2.0048999483     0.8046516027
C      0.4535880110     1.9364127695     0.6479849980
C      1.1377864097     0.7153680316     0.6878541220
C      0.4890965800    -0.4633040238     0.7828715469
C     -1.6350344258     0.8431354422     0.8791964995
H     -1.4268640850     2.9666967764     0.8322344604
H      1.0412061690     2.8376762901     0.5142935427
H      1.0248305799    -1.4048486844     0.7851967082
H     -2.7137824636     0.8463784585     0.9461895555
N      2.6187465656     0.7204716494     0.6087454086
O      3.1687619182    -0.3028981764     0.9148280183
O      3.1145328154     1.7447606251     0.2213742497
C     -0.9808413291    -0.4688710526     0.7023980911
H     -1.4359579443    -1.2535442071     1.3045792742
Br    -1.3128957334    -0.9207349145    -1.1609404347
15
attempt 3 | |g_proj| = 2.124e-03 | E = -3010.3328340966 Ha
C     -0.9354604792     2.0043789760     0.8022132372
C      0.4534984972     1.9330729197     0.6493273024
C      1.1391696895     0.7137408755     0.6900684151
C      0.4885335885    -0.4639653600     0.7761483897
C     -1.6375633045     0.8447716608     0.8740148224
H     -1.4290176015     2.9648842459     0.8358418424
H      1.0378774689     2.8346480219     0.5129416478
H      1.0290993746    -1.4030964519     0.7878929884
H     -2.7162108869     0.8498170766     0.9495015952
N      2.6200834537     0.7202704199     0.6116555267
O      3.1706954369    -0.3035714471     0.9150732349
O      3.1139075223     1.7430199340     0.2185817658
C     -0.9824890869    -0.4673802548     0.7021976141
H     -1.4346924998    -1.2514588343     1.3084296465
Br    -1.3092644539    -0.9175328451    -1.1624303812
15
attempt 4 | |g_proj| = 1.568e-03 | E = -3010.3328358954 Ha
C     -0.9358541623     2.0041563852     0.8018655783
C      0.4531098831     1.9329919099     0.6490634981
C      1.1390361341     0.7137641937     0.6900667403
C      0.4886288563    -0.4639547642     0.7769422974
C     -1.6378261487     0.8445275525     0.8742937155
H     -1.4291515197     2.9647532297     0.8364259656
H      1.0376801176     2.8344232437     0.5128770727
H      1.0294470546    -1.4029119174     0.7878835373
H     -2.7165600376     0.8504780321     0.9498359857
N      2.6201677387     0.7197911203     0.6113383316
O      3.1711545788    -0.3035875204     0.9155422408
O      3.1139348581     1.7427232665     0.2182482217
C     -0.9824462859    -0.4676170388     0.7014329176
H     -1.4344452858    -1.2507579341     1.3088552002
Br    -1.3087090612    -0.9171808171    -1.1632136508
