15
attempt 1 | |g_proj| = 5.856e-03 | E = -3010.3533101717 Ha
C     -0.9138195171     2.0306745293     0.7170255133
C      0.4816918499     1.9484521682     0.8037269942
C      1.1589377269     0.7351558970     0.6422632641
C      0.4879376145    -0.4229850844     0.4510877397
C     -1.6397983471     0.8924779580     0.5281004808
H     -1.4047500898     2.9905072440     0.7833149383
H      1.0807952737     2.8327372139     0.9844259878
H      1.0300914172    -1.3550392283     0.3451465971
H     -2.7241640255     0.9161537473     0.4777802228
N      2.6507030664     0.7296190657     0.6602509335
O      3.1890317780    -0.2776781848     0.2869347289
O      3.1688268158     1.7382408156     1.0604809797
C     -0.9775789090    -0.4204415643     0.5507480787
H     -1.1345105770    -0.7089024626     1.6020024961
Br    -1.8452273318    -1.8273730768    -0.4218312091
15
attempt 2 | |g_proj| = 1.871e-03 | E = -3010.3534751345 Ha
C     -0.9112924765     2.0330910882     0.7130775915
C      0.4810384904     1.9513626768     0.8058997742
C      1.1549008075     0.7360473366     0.6455610197
C      0.4912189258    -0.4278331436     0.4551426003
C     -1.6276008551     0.8898317604     0.5229613297
H     -1.4016056757     2.9934444952     0.7834260346
H      1.0744396019     2.8390522562     0.9876806739
H      1.0242803740    -1.3640147271     0.3358087437
H     -2.7085055348     0.9123997182     0.4704749085
N      2.6413947565     0.7334903547     0.6595570585
O      3.1723564127    -0.2756772202     0.2816440491
O      3.1631995484     1.7367216230     1.0682102309
C     -0.9715428299    -0.4247785034     0.5515532468
H     -1.1198047177    -0.7054069326     1.6071352815
Br    -1.8543100812    -1.8261317400    -0.4166747925
