15
para_th90_ph162 | OPTIMIZED | |g_proj|=4.514e-04 | E=-3010.3158842118 Ha
C     -0.4931501885     1.2007113388     1.0257052701
C      0.8587646734     1.2071961541     1.0476231642
C      1.4918807728     0.0006469651     0.7574496886
H     -1.0452754272     2.1125070907     1.1944832375
H      1.4349243420     2.0989828714     1.2439776971
N      2.9674394649     0.0373723522     0.6102003107
O      3.5485533409     0.8318050051     1.2977888791
O      3.4028911319    -0.7203394513    -0.2133150291
C     -0.4823622436    -1.2571949503     0.5685939035
H     -1.0204681128    -2.1817183585     0.3996237489
C      0.8741358898    -1.2266400491     0.5597838162
H      1.4588830771    -2.1082527235     0.3619037465
C     -1.2532224913    -0.0148114633     0.6947054925
H     -2.1565370274    -0.1300784120     1.2825801668
Br    -1.8205379300     0.2973341096    -1.1656644477
