15
ortho_th81_ph198 | OPTIMIZED | |g_proj|=7.799e-04 | E=-3010.3289244242 Ha
C     -1.7868617605     1.9487527055     0.6886903302
C     -0.3604507446     1.9793914533     0.7021507622
C      0.2937175985     0.8147530040     0.7042613342
C     -2.4995947325     0.7632518796     0.7256304817
H     -2.3174619376     2.8938441223     0.6615579527
H      0.1674791269     2.9172696505     0.7283875361
H     -3.5734856065     0.7833839673     0.7380797862
N      1.7749510987     0.8219348782     0.7682942152
O      2.3116406214    -0.2561819021     0.7591955111
O      2.2774404941     1.9060876777     0.8454848871
C     -1.8168151506    -0.4220428741     0.7705434385
H     -2.3407457977    -1.3638966369     0.8307518298
C     -0.3610586847    -0.4942738288     0.6709004599
H      0.1043829333    -1.2271332924     1.3280245453
Br    -0.2266383668    -1.2806640457    -1.1322250733
