15
attempt 1 | |g_proj| = 5.949e-04 | E = -3010.3537088797 Ha
C     -0.4723790186     1.2466010029     0.4471174772
C      0.8816209900     1.2520913756     0.6080987560
C      1.5273586501     0.0212395681     0.7231091361
H     -1.0298491553     2.1710297120     0.3556667625
H      1.4597209378     2.1640774334     0.6335442932
N      3.0170437388     0.0361968946     0.9113264085
O      3.5725505944    -1.0234462721     0.8012260580
O      3.5000699033     1.1056565468     1.1687591232
C     -0.4471709489    -1.2460420986     0.5162232864
H     -0.9867664840    -2.1830656137     0.4735899112
C      0.9065724863    -1.2253091457     0.6626629785
H      1.5031131848    -2.1254733038     0.7098777138
C     -1.2255881829    -0.0061215491     0.5295491621
H     -1.5655356419     0.0359933174     1.5790696314
Br    -2.8748417590    -0.0759073899    -0.4543810250
