15
attempt 1 | |g_proj| = 1.238e-03 | E = -3010.3337758291 Ha
C     -0.4828386202     1.2291781161     0.8720439392
C      0.8717819966     1.2377242865     0.8927460576
C      1.5321596427     0.0196466590     0.7109437503
H     -1.0481472413     2.1416236713     0.9934295349
H      1.4395561507     2.1395183491     1.0337320425
N      2.9949348131     0.0213505149     0.7037833768
O      3.5003649057     0.1255739987     1.7864676332
O      3.4984241702    -0.1076068349    -0.3769392201
C     -0.4489856972    -1.2317371620     0.5515581132
H     -0.9909031217    -2.1540465976     0.4362090712
C      0.8988703025    -1.2222857376     0.5422128222
H      1.4946840387    -2.1107551643     0.4104337642
C     -1.2468140215    -0.0074825443     0.6792483699
H     -2.0248375539    -0.1055968759     1.4393962618
Br    -2.2223305104     0.1724157992    -1.0098258947
