15
attempt 1 | |g_proj| = 5.156e-04 | E = -3010.3461526357 Ha
C     -1.7900854197     1.9488631660     0.7060244610
C     -0.3702772046     1.9869833951     0.7149333671
C      0.2956947512     0.8221094511     0.6872357713
C     -2.5136356085     0.7597450945     0.7128659518
H     -2.3252897706     2.8924853126     0.7066715251
H      0.1643284093     2.9250428319     0.7598904802
H     -3.5929740256     0.7788300740     0.7235480626
N      1.7830318015     0.8381394075     0.7413650195
O      2.3194529719    -0.2392870720     0.6964780406
O      2.2976004464     1.9172474106     0.8539663248
C     -1.8307952165    -0.4224427581     0.7403599061
H     -2.3555933497    -1.3680900978     0.7796957519
C     -0.3662776100    -0.4884188335     0.6500230852
H      0.0818889730    -1.1698344894     1.3727958058
Br    -0.1505700617    -1.3968961286    -1.0561255523
