15
attempt 1 | |g_proj| = 8.388e-04 | E = -3010.3343702401 Ha
C     -0.5054227881     1.2231378756     0.8206165347
C      0.8513986378     1.2388296750     0.7781040763
C      1.5089042046     0.0132406249     0.7197010588
H     -1.0745834013     2.1422726371     0.8767237399
H      1.4193240845     2.1537026740     0.7899549801
N      2.9925795765     0.0507813759     0.6685455774
O      3.5571558575    -0.8460439283     1.2335714293
O      3.4606131188     0.9703916828     0.0527825071
C     -0.4593229548    -1.2660707166     0.7013921217
H     -0.9945282681    -2.2032300258     0.6735715840
C      0.8938741324    -1.2449529062     0.7151174586
H      1.4998120462    -2.1388757999     0.7276718308
C     -1.2574288681    -0.0290183922     0.6697539458
H     -2.1093013468    -0.0898159835     1.3498848326
Br    -2.0171547846     0.1731716850    -1.1119520639
