15
ortho_th54_ph18 | OPTIMIZED | |g_proj|=1.237e-03 | E=-3010.3394250858 Ha
C     -1.7981687419     1.9487188968     0.7517939068
C     -0.3787119255     1.9917166294     0.7106002928
C      0.2756578209     0.8235079547     0.6901308679
C     -2.5158853555     0.7543355420     0.7855627242
H     -2.3369348203     2.8897455270     0.7758658189
H      0.1502622408     2.9311951664     0.7117383948
H     -3.5914670824     0.7766533387     0.8402451141
N      1.7556857894     0.8022558460     0.7606381426
O      2.2364648574    -0.2320573045     1.1486528965
O      2.3133124130     1.8070607258     0.4185897483
C     -1.8371967910    -0.4266094756     0.7045126588
H     -2.3574888741    -1.3736019102     0.6813062283
C     -0.3785143814    -0.4828104634     0.6209388035
H      0.0465481691    -1.1951802453     1.3266963085
Br     0.0629358047    -1.2304535060    -1.1375439465
