15
attempt 1 | |g_proj| = 2.527e-03 | E = -3010.3258879119 Ha
C     -0.5027558834     1.2467756360     0.7467092368
C      0.8531469959     1.2575677645     0.7169157451
C      1.5016504953     0.0246269442     0.7017585515
H     -1.0625170306     2.1735976902     0.7485498405
H      1.4233405330     2.1732648146     0.7179120859
N      3.0000274700     0.0459437792     0.6964659002
O      3.5348006137    -1.0288374998     0.6906826788
O      3.5051313883     1.1350592256     0.6842396630
C     -0.4668583147    -1.2550232424     0.7566308210
H     -0.9995722450    -2.1977928905     0.7654711582
C      0.8888789504    -1.2262219302     0.7267798721
H      1.4850559595    -2.1250407015     0.7352029716
C     -1.2595698260    -0.0156565181     0.6720089519
H     -2.0791305375    -0.0245449380     1.3949529318
Br    -2.0557093372    -0.0361976562    -1.0888408132
15
attempt 2 | |g_proj| = 1.967e-03 | E = -3010.3258968533 Ha
C     -0.5042809194     1.2460791633     0.7472138035
C      0.8519094139     1.2580917460     0.7173169802
C      1.5001929878     0.0246093366     0.7020103236
H     -1.0627085877     2.1730368414     0.7498548088
H      1.4247965114     2.1730631658     0.7186843773
N      3.0006043159     0.0459579312     0.6962290693
O      3.5361042524    -1.0288116867     0.6882952195
O      3.5064238617     1.1348576729     0.6824952735
C     -0.4683910071    -1.2542566555     0.7572396090
H     -0.9997352426    -2.1971114828     0.7668280840
C      0.8876619244    -1.2267152406     0.7272424674
H      1.4865614431    -2.1247132400     0.7358603357
C     -1.2617252540    -0.0156419761     0.6724470025
H     -2.0810914186    -0.0244917679     1.3952392500
Br    -2.0504030459    -0.0364333299    -1.0915170047
