15
para_th81_ph288 | OPTIMIZED | |g_proj|=1.863e-03 | E=-3010.3334362907 Ha
C     -0.4630026187     1.2307544774     0.9055481359
C      0.8861816288     1.2290464594     0.9231304406
C      1.5299079795    -0.0028914357     0.7145589910
H     -1.0130539359     2.1465151778     1.0411769761
H      1.4788856557     2.1159143430     1.0817674010
N      2.9982593349     0.0078090078     0.6917053648
O      3.5214270611     0.3345214124     1.7210682380
O      3.4917714590    -0.2940096047    -0.3591514918
C     -0.4755484229    -1.2276481889     0.5487367863
H     -1.0340913934    -2.1430763497     0.4102688709
C      0.8801625973    -1.2231421128     0.5213998959
H      1.4542974373    -2.1167954612     0.3544883506
C     -1.2501867147     0.0095528011     0.6890435092
H     -2.0413450112    -0.0878106428     1.4374646826
Br    -2.1977457513     0.1687805960    -1.0157664646
