15
attempt 1 | |g_proj| = 1.270e-02 | E = -3010.3379718981 Ha
C     -1.7934433905     1.9390259727     0.7465377462
C     -0.3814565925     1.9857169276     0.7107141140
C      0.2835055982     0.8172397988     0.7139801776
C     -2.5243181150     0.7481314256     0.7815382552
H     -2.3335434876     2.8771610311     0.7709383029
H      0.1538251617     2.9230842045     0.7144285017
H     -3.6037068556     0.7737437874     0.8426547351
N      1.7667130205     0.7987552575     0.7551727183
O      2.2589211766    -0.2162702113     1.1773000483
O      2.3252007388     1.7929358034     0.3834557106
C     -1.8478893344    -0.4292933389     0.7157844062
H     -2.3772559009    -1.3708053232     0.6749076941
C     -0.3786149101    -0.4902647972     0.5990774652
H      0.0329687253    -1.1845415978     1.3395545449
Br     0.0655932690    -1.1801421950    -1.1363164371
15
attempt 2 | |g_proj| = 6.479e-03 | E = -3010.3382609266 Ha
C     -1.7933194341     1.9378714549     0.7394225189
C     -0.3803905120     1.9856728259     0.7208816657
C      0.2859794784     0.8161194593     0.7391404511
C     -2.5190544925     0.7436313209     0.7938687773
H     -2.3384613481     2.8756429837     0.7116079346
H      0.1492744063     2.9260956261     0.7076263478
H     -3.5980092060     0.7677689171     0.8335912231
N      1.7657434938     0.7868584478     0.7859798551
O      2.2487344097    -0.1812282901     1.3190608361
O      2.3257211985     1.7215870118     0.2829674183
C     -1.8412638542    -0.4356427517     0.7404061136
H     -2.3579269109    -1.3851054233     0.7135950106
C     -0.3749594525    -0.4900011375     0.6268308910
H      0.0744775020    -1.2503055318     1.2743369724
Br    -0.0000461788    -1.0344881631    -1.1995880277
15
attempt 3 | |g_proj| = 2.290e-03 | E = -3010.3383474082 Ha
C     -1.7923406203     1.9338554405     0.7335782313
C     -0.3793797240     1.9832691818     0.7223618477
C      0.2856083517     0.8150712622     0.7459607684
C     -2.5190968847     0.7407925931     0.7913399030
H     -2.3357235077     2.8718315147     0.7123193633
H      0.1501438147     2.9236405787     0.7070040851
H     -3.5984727750     0.7665522897     0.8353995865
N      1.7654166856     0.7886278783     0.7857732806
O      2.2464991936    -0.1787046034     1.3204300196
O      2.3300836708     1.7202909829     0.2833481534
C     -1.8400127869    -0.4371174402     0.7462463096
H     -2.3625132738    -1.3825040424     0.7163795625
C     -0.3756655676    -0.4883636742     0.6214835388
H      0.0730330440    -1.2411741805     1.2703899839
Br    -0.0010805246    -1.0315910266    -1.2022866409
