15
ortho_th72_ph342 | OPTIMIZED | |g_proj|=1.589e-03 | E=-3010.3205434439 Ha
C     -1.7566113474     1.9582681421     0.6250405189
C     -0.3460307384     1.9787005058     0.5670983841
C      0.2904897564     0.8019118158     0.6099278999
C     -2.4996165410     0.7856565627     0.7419740527
H     -2.2739758050     2.9070242697     0.5989942406
H      0.1908256036     2.9155654211     0.5339730268
H     -3.5724340714     0.8262425992     0.7969479364
N      1.7553812826     0.8269197187     0.7163904970
O      2.3775794243     0.4672465393    -0.2439909215
O      2.1473054599     1.2446311462     1.7746302140
C     -1.8522763451    -0.4093912125     0.7778890789
H     -2.3947185643    -1.3426116274     0.8629908126
C     -0.3893055897    -0.4989672459     0.7049348812
H     -0.0206943230    -1.0543732097     1.5678965642
Br    -0.0094191617    -1.6223466062    -0.8449691289
