15
attempt 1 | |g_proj| = 2.672e-03 | E = -3010.3308895110 Ha
C     -0.9375513518     2.0119351039     0.7900762346
C      0.4547304030     1.9386798870     0.6534751894
C      1.1371736305     0.7175787202     0.6902561919
C      0.4850504692    -0.4593207378     0.7698745032
C     -1.6370117054     0.8526127831     0.8592160402
H     -1.4291842618     2.9739504633     0.8245219801
H      1.0379442545     2.8422400349     0.5287419950
H      1.0289992457    -1.3966391802     0.7795305827
H     -2.7133964883     0.8617528549     0.9500303079
N      2.6185263087     0.7168262462     0.6104222901
O      3.1585384361    -0.3352747746     0.8214909262
O      3.1182284256     1.7662963392     0.3058537698
C     -0.9841217406    -0.4624097212     0.7050792589
H     -1.4307524837    -1.2348464845     1.3294763382
Br    -1.2990064277    -0.9917826161    -1.1465879789
15
attempt 2 | |g_proj| = 1.536e-03 | E = -3010.3309083285 Ha
C     -0.9380498645     2.0097655721     0.7916117037
C      0.4535043356     1.9398164744     0.6502997379
C      1.1360608678     0.7193980254     0.6878952023
C      0.4847810609    -0.4579993050     0.7720159635
C     -1.6363223324     0.8499187101     0.8609233329
H     -1.4274964837     2.9720667704     0.8271078584
H      1.0387980734     2.8426688290     0.5293354846
H      1.0258635066    -1.3965019174     0.7786298700
H     -2.7125230890     0.8610749631     0.9471142338
N      2.6175411492     0.7175988621     0.6092670760
O      3.1557369386    -0.3347407645     0.8221061340
O      3.1209545793     1.7652747358     0.3053262351
C     -0.9838524949    -0.4642068096     0.7043946399
H     -1.4318381747    -1.2320304258     1.3332953459
Br    -1.2949913569    -0.9905047973    -1.1478651843
