15
attempt 1 | |g_proj| = 7.299e-04 | E = -3010.3366468624 Ha
C     -1.7821633374     1.9330614501     0.6825975690
C     -0.3636872322     1.9816516307     0.7030184933
C      0.2967026448     0.8162985813     0.7224105075
C     -2.5052755157     0.7451369553     0.7473317953
H     -2.3194613905     2.8728308265     0.6336662308
H      0.1665897136     2.9233124496     0.7237090834
H     -3.5830348791     0.7638874639     0.7751814302
N      1.7818099278     0.8192639381     0.7950600562
O      2.2889881164    -0.2490083269     1.0250438006
O      2.3189918413     1.8841091362     0.6618372678
C     -1.8266629873    -0.4383914938     0.7823249992
H     -2.3507536535    -1.3856954200     0.8210582427
C     -0.3650597942    -0.4930583251     0.6345618561
H      0.1193493891    -1.2346449677     1.2689210897
Br    -0.2298337710    -1.1542771157    -1.1869944010
