15
meta_th9_ph0 | OPTIMIZED | |g_proj|=1.686e-03 | E=-3010.3573250124 Ha
C     -0.9203620514     2.0259607730     0.7662939762
C      0.4782557176     1.9633933577     0.7197808304
C      1.1567767028     0.7376149976     0.6546844842
C      0.4937514585    -0.4359994031     0.5804165241
C     -1.6337763557     0.8694683206     0.6996922256
H     -1.4129714461     2.9846836455     0.8378468899
H      1.0753069648     2.8689259938     0.7373737963
H      1.0320624444    -1.3747718113     0.5105315633
H     -2.7175948108     0.8752458354     0.7133893323
N      2.6442767714     0.7406949229     0.6534085121
O      3.1761578862    -0.3362967865     0.6331628629
O      3.1690996520     1.8230730503     0.6716041055
C     -0.9746446411    -0.4427676504     0.6146252615
H     -1.2655821320    -1.0061405413     1.5096564837
Br    -1.6925894477    -1.4914857906    -0.8310092230
