15
attempt 1 | |g_proj| = 2.640e-03 | E = -3010.3478359205 Ha
C     -0.9080664543     2.0281633852     0.6956555557
C      0.4833820440     1.9488816797     0.8000246223
C      1.1572978073     0.7354044009     0.6345966465
C      0.4874166639    -0.4216259509     0.4337734365
C     -1.6314879775     0.8881993191     0.5091384874
H     -1.3967972034     2.9866920469     0.7590192295
H      1.0777206225     2.8318932105     1.0019521622
H      1.0213487557    -1.3543473215     0.3096893557
H     -2.7128623979     0.9105809965     0.4447463071
N      2.6403476538     0.7294739241     0.6722919590
O      3.1747419662    -0.2273634418     0.1814286980
O      3.1600175885     1.6794903283     1.1954884054
C     -0.9738427255    -0.4231296247     0.5512248525
H     -1.0969508021    -0.6553300815     1.6254128451
Br    -1.8740987979    -1.8553838416    -0.3429848260
