15
meta_th54_ph252 | OPTIMIZED | |g_proj|=5.393e-03 | E=-3010.3390199554 Ha
C     -0.9093160647     2.0289162364     0.6929569050
C      0.4826334252     1.9458914967     0.7908271352
C      1.1570359275     0.7297082292     0.6413202699
C      0.4874377917    -0.4272806658     0.4533822027
C     -1.6328744086     0.8885090938     0.5209442962
H     -1.3983581002     2.9891778567     0.7470041256
H      1.0783349907     2.8326072523     0.9729830919
H      1.0242260814    -1.3601275048     0.3430324113
H     -2.7141021324     0.9141166169     0.4645389267
N      2.6408398707     0.7264702334     0.6654224371
O      3.1816447276    -0.2025013167     0.1300043193
O      3.1515422681     1.6573913209     1.2283014791
C     -0.9752075118    -0.4236876521     0.5675131991
H     -1.1108074874    -0.6740962208     1.6347614288
Br    -1.8548626360    -1.8234959523    -0.3815344952
