15
attempt 1 | |g_proj| = 1.623e-03 | E = -3010.3505525596 Ha
C     -1.7901143899     1.9571574065     0.7307554674
C     -0.3717330039     1.9886972306     0.7189051606
C      0.2983718706     0.8261287201     0.6393945874
C     -2.5204792452     0.7753365840     0.6849574143
H     -2.3207964130     2.9000072824     0.7893901039
H      0.1660993270     2.9239761404     0.7831556602
H     -3.6010858901     0.7946742879     0.6874122932
N      1.7856748152     0.8513052515     0.6977515549
O      2.3419599017    -0.1748714000     0.4051048311
O      2.2876776396     1.8901600559     1.0335425641
C     -1.8402947048    -0.4101083335     0.6870457895
H     -2.3711954122    -1.3515741526     0.7323898760
C     -0.3745298095    -0.4818720956     0.6516128695
H      0.0210196728    -1.0894724686     1.4601093444
Br    -0.0640752876    -1.6150677264    -0.9117994976
