15
para_th27_ph36 | OPTIMIZED | |g_proj|=7.511e-04 | E=-3010.3401953547 Ha
C     -0.5039606104     1.2355187495     0.7562690550
C      0.8543691571     1.2485533726     0.7366284674
C      1.5101463198     0.0183151781     0.7133547165
H     -1.0702162509     2.1591638747     0.7807377172
H      1.4290437771     2.1620130257     0.7433186380
N      3.0092711687     0.0507277510     0.7006605324
O      3.5586156613    -0.9847993447     0.9627823520
O      3.5046882626     1.1080183309     0.4170800232
C     -0.4617064321    -1.2616594941     0.7060021010
H     -0.9984921093    -2.2012842071     0.6876894495
C      0.8955261753    -1.2367876212     0.7244906109
H      1.4996559691    -2.1325522131     0.7489068270
C     -1.2576376154    -0.0234153388     0.6544352273
H     -2.0627885427    -0.0634253217     1.3935876526
Br    -2.1405956910     0.0691337356    -1.0605037657
