15
attempt 1 | |g_proj| = 1.884e-03 | E = -3010.3534449833 Ha
C     -1.7925221017     1.9570829703     0.7503087328
C     -0.3753544901     1.9906317341     0.7201367399
C      0.2895491827     0.8246279599     0.6420049714
C     -2.5235805047     0.7717375842     0.7214326548
H     -2.3224833216     2.9010907987     0.8062567173
H      0.1656252490     2.9258743548     0.7698002827
H     -3.6039679933     0.7951207905     0.7443020137
N      1.7790744297     0.8428234379     0.7011873391
O      2.3228464001    -0.2256828384     0.5981042351
O      2.2922519562     1.9186796051     0.8515486684
C     -1.8476602747    -0.4148905554     0.6749010151
H     -2.3791450764    -1.3588779543     0.6885272155
C     -0.3818244823    -0.4827920659     0.6301663768
H     -0.0012956152    -1.1044430691     1.4364148304
Br     0.0249856874    -1.5565059375    -0.9453637411
