15
meta_th27_ph270 | OPTIMIZED | |g_proj|=1.642e-03 | E=-3010.3593751723 Ha
C     -0.9136933275     2.0313785264     0.7210426365
C      0.4815699212     1.9558158110     0.8005249799
C      1.1565989973     0.7392357730     0.6422932620
C      0.4908595711    -0.4234690438     0.4529382512
C     -1.6310794171     0.8862775598     0.5418869696
H     -1.4057179464     2.9905368134     0.7911447635
H      1.0757734563     2.8458755117     0.9754449573
H      1.0286604101    -1.3565248128     0.3322625904
H     -2.7129490522     0.9031269440     0.4872436031
N      2.6433434362     0.7347671321     0.6654826228
O      3.1734963665    -0.2876751351     0.3234407110
O      3.1686865020     1.7548552857     1.0267744651
C     -0.9711706246    -0.4249357661     0.5488956909
H     -1.1215789774    -0.7305234114     1.5977596698
Br    -1.8546325773    -1.8171421765    -0.4356774538
