15
attempt 1 | |g_proj| = 1.192e-03 | E = -3010.3299849433 Ha
C     -0.9327383802     2.0199934263     0.7674144189
C      0.4650082457     1.9569174564     0.6711402842
C      1.1399847861     0.7314498337     0.6686870603
C      0.4827966630    -0.4445847457     0.7280468099
C     -1.6294563554     0.8606263512     0.8007666955
H     -1.4212779782     2.9809823085     0.8004574081
H      1.0478099941     2.8679270826     0.6063937098
H      1.0187184445    -1.3845432711     0.7195925115
H     -2.7048034156     0.8719641431     0.8579941464
N      2.6209499471     0.7216526602     0.6076022260
O      3.1327387283    -0.3640341693     0.5947071347
O      3.1475424080     1.8001646005     0.5598508584
C     -0.9817909080    -0.4562785233     0.7112740437
H     -1.3961810956    -1.1636660759     1.4314661422
Br    -1.3811343711    -1.1969721634    -1.0539358244
