15
attempt 1 | |g_proj| = 7.110e-05 | E = -3010.3523873980 Ha
C     -1.7933252693     1.9521450220     0.7383961751
C     -0.3755417328     1.9896465533     0.7229184337
C      0.2907699986     0.8234270944     0.6682220105
C     -2.5215816057     0.7633466777     0.7297895501
H     -2.3271121724     2.8957939539     0.7705310267
H      0.1627924014     2.9266929988     0.7661321765
H     -3.6019458505     0.7845149914     0.7529537499
N      1.7802535739     0.8381501678     0.7194324516
O      2.3147864254    -0.2408458491     0.7402810698
O      2.3003721669     1.9205231139     0.7530100553
C     -1.8424177704    -0.4206775180     0.7030553379
H     -2.3700838937    -1.3667782940     0.7069217348
C     -0.3759523420    -0.4860115591     0.6305746531
H      0.0378348045    -1.1388227584     1.3991817366
Br    -0.0323496458    -1.4566278311    -1.0116721611
