15
attempt 1 | |g_proj| = 5.360e-03 | E = -3010.3389464939 Ha
C     -1.7942884081     1.9514897711     0.7178689862
C     -0.3725425837     1.9969838118     0.7071398736
C      0.2738599096     0.8262989955     0.6835973793
C     -2.5079630588     0.7570893860     0.7631816735
H     -2.3299308812     2.8939331761     0.7073681152
H      0.1625812689     2.9371124544     0.7154262674
H     -3.5843458325     0.7761124033     0.7921028540
N      1.7556333719     0.8169911914     0.7617433494
O      2.2534372798    -0.2714243487     0.8910133630
O      2.2980602447     1.8836831909     0.6828674411
C     -1.8313315934    -0.4324660363     0.7377638477
H     -2.3457907096    -1.3846797375     0.7844772680
C     -0.3751130814    -0.4874623491     0.6384934404
H      0.0605105332    -1.2030135956     1.3293521594
Br    -0.0162773129    -1.2761716193    -1.1226680867
15
attempt 2 | |g_proj| = 3.950e-03 | E = -3010.3392421682 Ha
C     -1.7934696325     1.9510634320     0.7507923649
C     -0.3741927108     1.9949425256     0.6962733908
C      0.2783159235     0.8276679992     0.6657858892
C     -2.5095889962     0.7585289485     0.7820787408
H     -2.3276912546     2.8934729324     0.7778768386
H      0.1543980648     2.9358101829     0.6969503658
H     -3.5837399033     0.7758975038     0.8371962467
N      1.7614618144     0.8210849802     0.7501644459
O      2.2550324849    -0.2553058107     0.9656165695
O      2.3051019106     1.8800312134     0.6008845266
C     -1.8380454965    -0.4282633464     0.6957499823
H     -2.3654570790    -1.3748160875     0.6642099439
C     -0.3790875500    -0.4824827686     0.6302578929
H      0.0299488555    -1.1711861885     1.3654218708
Br     0.0335127117    -1.3419688177    -1.0895311327
15
attempt 3 | |g_proj| = 2.332e-03 | E = -3010.3392638091 Ha
C     -1.7940287291     1.9502205217     0.7494858209
C     -0.3739450349     1.9943008764     0.6968054131
C      0.2777362698     0.8264787852     0.6647778870
C     -2.5115342401     0.7586833542     0.7809660668
H     -2.3283462320     2.8924834527     0.7802884951
H      0.1557507079     2.9356079470     0.6981837794
H     -3.5859440355     0.7768554638     0.8368183310
N      1.7596979836     0.8212940093     0.7510337249
O      2.2539419854    -0.2549476492     0.9658643169
O      2.3051654343     1.8783039156     0.5987402214
C     -1.8377555574    -0.4265100793     0.6955447723
H     -2.3636489428    -1.3720034348     0.6672966285
C     -0.3785503520    -0.4844201280     0.6260058309
H      0.0305834566    -1.1709383845     1.3639122344
Br     0.0373764251    -1.3409319466    -1.0859955819
15
attempt 4 | |g_proj| = 1.976e-03 | E = -3010.3392647069 Ha
C     -1.7940266731     1.9503385431     0.7494844838
C     -0.3740574888     1.9942528262     0.6967845817
C      0.2776836209     0.8266241770     0.6647139023
C     -2.5115481838     0.7587742742     0.7808112308
H     -2.3284106480     2.8924067792     0.7805360600
H      0.1557881370     2.9353609560     0.6983946766
H     -3.5861112332     0.7769242585     0.8367706488
N      1.7597717068     0.8209308338     0.7508975813
O      2.2537257640    -0.2550322011     0.9660534869
O      2.3051265172     1.8784573966     0.5984776190
C     -1.8377173157    -0.4264197654     0.6954380332
H     -2.3636689044    -1.3720342655     0.6676670474
C     -0.3785956726    -0.4840904057     0.6262414136
H      0.0305483464    -1.1708402981     1.3636983946
Br     0.0379911622    -1.3411764006    -1.0862412147
