15
para_th90_ph108 | OPTIMIZED | |g_proj|=1.044e-03 | E=-3010.3330373476 Ha
C     -0.4702564125     1.2225987361     0.8757691392
C      0.8774767540     1.2345689978     0.8939780537
C      1.5326507794     0.0032920660     0.7161032427
H     -1.0262358852     2.1358524612     0.9945712666
H      1.4575372430     2.1333161826     1.0290162426
N      2.9947487660     0.0252965129     0.7002390594
O      3.5099306888     0.1072690813     1.7801191536
O      3.4877562412    -0.0195820075    -0.3917910546
C     -0.4633089813    -1.2378562895     0.5632016433
H     -1.0117954118    -2.1605460304     0.4475141047
C      0.8910375503    -1.2265241835     0.5539150942
H      1.4712445464    -2.1219699749     0.4272422957
C     -1.2487334976    -0.0057475094     0.6770363509
H     -2.0376905103    -0.1031452808     1.4266585980
Br    -2.1984426093     0.1606977167    -1.0281335587
