15
attempt 1 | |g_proj| = 2.164e-03 | E = -3010.3435409878 Ha
C     -0.9278313838     2.0028657852     0.7897874303
C      0.4630106279     1.9374508744     0.6630495265
C      1.1501357880     0.7134401135     0.6754243488
C      0.4966521577    -0.4640005197     0.7239945310
C     -1.6326578955     0.8412926355     0.8428626017
H     -1.4229904242     2.9619823002     0.8273471171
H      1.0515574354     2.8426450650     0.5644618775
H      1.0393423845    -1.4018553245     0.7202527868
H     -2.7139522631     0.8448798078     0.9089615349
N      2.6327424685     0.7339739414     0.6259006177
O      3.1878973262    -0.2831989750     0.9429716862
O      3.1310653959     1.7695266640     0.2691410208
C     -0.9767513248    -0.4702462081     0.6797074567
H     -1.3908596953    -1.2254657516     1.3489780483
Br    -1.4791938726    -1.0016914473    -1.1113829142
