15
para_th18_ph36 | OPTIMIZED | |g_proj|=6.537e-04 | E=-3010.3467076552 Ha
C     -0.4901938439     1.2396403296     0.6462785242
C      0.8681105192     1.2534164635     0.6928184799
C      1.5238345230     0.0221072423     0.7115346970
H     -1.0564317549     2.1631494507     0.6294853743
H      1.4429705757     2.1674444331     0.7152798245
N      3.0232718727     0.0498855708     0.7929264595
O      3.5585504792    -1.0071335808     0.9913740461
O      3.5345467519     1.1267760126     0.6434413824
C     -0.4502332707    -1.2571108033     0.6210122956
H     -0.9884784408    -2.1961879889     0.5883735230
C      0.9074074572    -1.2307743733     0.6782811808
H      1.5110860068    -2.1266202120     0.7037930016
C     -1.2437508106    -0.0201776243     0.6077424920
H     -1.8861081181    -0.0489398618     1.4993198588
Br    -2.4886627082     0.0120454191    -0.8562215352
