15
meta_th63_ph126 | OPTIMIZED | |g_proj|=4.286e-04 | E=-3010.3332777432 Ha
C     -0.9055336581     1.9898619126     0.8047203664
C      0.4789568554     1.9307727642     0.6731704437
C      1.1584695774     0.6966503748     0.6624356412
C      0.4941724329    -0.4698109174     0.6794386664
C     -1.6151160247     0.8287376256     0.8476349473
H     -1.3948157429     2.9447453213     0.8654215136
H      1.0691207314     2.8368975576     0.5927411796
H      1.0236570970    -1.4090899581     0.6783989127
H     -2.6922773353     0.8336457789     0.9404149571
N      2.6316985444     0.7377631511     0.6407416882
O      3.1884111997    -0.1048735340     1.2883535026
O      3.1229000614     1.6282830286    -0.0050874186
C     -0.9751328297    -0.4775226101     0.6599381211
H     -1.3894530663    -1.2559792646     1.3004742445
Br    -1.5868911212    -0.9084822842    -1.1573391097
