15
ortho_th45_ph144 | OPTIMIZED | |g_proj|=2.404e-03 | E=-3010.3294989778 Ha
C     -1.7747180484     1.9227650051     0.6880025728
C     -0.3601450689     1.9724534441     0.7082378536
C      0.2986673666     0.8074816318     0.7304502315
C     -2.5013759435     0.7379651294     0.7632750324
H     -2.3094990546     2.8612574219     0.6327763879
H      0.1732042276     2.9115422773     0.7285080865
H     -3.5789375855     0.7582717669     0.7934163843
N      1.7784196713     0.8131161275     0.8157177727
O      2.2635503638    -0.1793680323     1.2971477008
O      2.3312227611     1.8141579483     0.4519234966
C     -1.8278088182    -0.4476621360     0.7895621362
H     -2.3559617793    -1.3931255144     0.8230391796
C     -0.3659362670    -0.4997245924     0.6150929106
H      0.1305890022    -1.2684278348     1.2054796519
Br    -0.2547717321    -1.0262258882    -1.2529014057
