15
attempt 1 | |g_proj| = 1.819e-03 | E = -3010.3405102923 Ha
C     -0.4573887301     1.2591033925     0.5206644812
C      0.8951826028     1.2583821779     0.5861670406
C      1.5367862667     0.0174469332     0.7052785168
H     -1.0067287907     2.1819250347     0.4126500902
H      1.4847578748     2.1598842843     0.5491424462
N      3.0074840795     0.0091391038     0.7897205026
O      3.5658238706    -0.7175157675     0.0146424616
O      3.4718721888     0.7277918835     1.6324566343
C     -0.4652485527    -1.2111712003     0.7638913602
H     -1.0242267786    -2.1288605161     0.8532089299
C      0.8880539202    -1.2189746009     0.7629339549
H      1.4693678015    -2.1238556238     0.8186864132
C     -1.2405223966     0.0249854786     0.6396343914
H     -1.9200103900     0.1304137019     1.4928267384
Br    -2.4392836470    -0.2211738028    -0.8764642564
