15
ortho_th81_ph18 | OPTIMIZED | |g_proj|=1.765e-03 | E=-3010.3307475528 Ha
C     -1.7926504884     1.9479874734     0.7642342704
C     -0.3727118600     1.9864228548     0.7446111880
C      0.2756463767     0.8169585690     0.7062628831
C     -2.5071814250     0.7527672326     0.7592711480
H     -2.3300593681     2.8895352916     0.7940211665
H      0.1566000995     2.9245230192     0.7619697492
H     -3.5807916148     0.7740414416     0.7926376769
N      1.7504971820     0.8053745761     0.7558347793
O      2.2435390314    -0.1555540517     1.2887470494
O      2.2892879468     1.7561047096     0.2658342374
C     -1.8294426888    -0.4287495467     0.7048167898
H     -2.3488436258    -1.3747659315     0.6891185828
C     -0.3721414869    -0.4897879610     0.6249615788
H      0.0669769568    -1.2162139375     1.3081313738
Br    -0.0022259005    -1.2041670319    -1.1707245276
