15
meta_th36_ph252 | OPTIMIZED | |g_proj|=1.860e-03 | E=-3010.3539726849 Ha
C     -0.9116489837     2.0315450691     0.7118897396
C      0.4817764971     1.9509288996     0.8049007390
C      1.1563357003     0.7363912231     0.6428229135
C      0.4897946327    -0.4249191425     0.4489957034
C     -1.6313171793     0.8896564681     0.5229481143
H     -1.4021338652     2.9915827576     0.7795357658
H      1.0768233288     2.8376342214     0.9891833198
H      1.0256377021    -1.3587723066     0.3298717578
H     -2.7131350322     0.9106755634     0.4667896492
N      2.6432612957     0.7320464689     0.6629286567
O      3.1763739785    -0.2704593777     0.2706312751
O      3.1644660602     1.7296785138     1.0857524455
C     -0.9730523244    -0.4234478934     0.5501244332
H     -1.1160415953    -0.6990712867     1.6079726247
Br    -1.8589734636    -1.8318701173    -0.4028893694
