15
attempt 1 | |g_proj| = 1.283e-03 | E = -3010.3493249064 Ha
C     -0.4772169328     1.2308372221     0.6313122008
C      0.8774659715     1.2485423537     0.6957547662
C      1.5338289958     0.0165748079     0.7185297876
H     -1.0437058733     2.1511895079     0.6325944694
H      1.4517432055     2.1621230805     0.7174462611
N      3.0187959060     0.0462539882     0.8258547183
O      3.5169725962    -0.8857290204     1.3976421741
O      3.5565305101     1.0049992199     0.3407986771
C     -0.4425425605    -1.2566370209     0.5320683683
H     -0.9788897388    -2.1933009625     0.4579978264
C      0.9118716993    -1.2332572838     0.6462717170
H      1.5111533247    -2.1300578306     0.6710360968
C     -1.2332100423    -0.0233662359     0.5963870614
H     -1.7988331039    -0.0966041259     1.5352515369
Br    -2.6380447004     0.1059527775    -0.7335060335
