15
para_th81_ph144 | OPTIMIZED | |g_proj|=1.146e-03 | E=-3010.3207964431 Ha
C     -0.4756686706     1.2277379553     0.8234200368
C      0.8726988488     1.2505246731     0.7887310867
C      1.5151922844     0.0122304565     0.6991517359
H     -1.0301700753     2.1464460221     0.9163942410
H      1.4474375417     2.1646870103     0.8302273838
N      2.9855227508     0.0331874027     0.6920957343
O      3.4894716434    -0.5649756879     1.6020484291
O      3.4926121996     0.6636823263    -0.1943654057
C     -0.4646778966    -1.2599471482     0.6234039608
H     -1.0043659450    -2.1965431760     0.5523720618
C      0.8904921948    -1.2315759176     0.6410838034
H      1.4752034481    -2.1336227383     0.6034907977
C     -1.2457588723    -0.0183987195     0.6901145630
H     -2.0363387560    -0.0953458234     1.4337807285
Br    -2.1457314309     0.1494338426    -1.0365095210
