15
para_th36_ph18 | OPTIMIZED | |g_proj|=1.343e-03 | E=-3010.3323746745 Ha
C     -0.5123547640     1.2386771243     0.7917233614
C      0.8455400372     1.2509431425     0.7490650629
C      1.4996106377     0.0214621639     0.7131938095
H     -1.0751575084     2.1639898169     0.8254203981
H      1.4187234930     2.1648429243     0.7471904588
N      2.9994616397     0.0481574393     0.6647471773
O      3.5475691907    -1.0054450062     0.8429818148
O      3.4941183926     1.1177210576     0.4322576120
C     -0.4681399410    -1.2593697631     0.7528453289
H     -0.9995886413    -2.2013464591     0.7452197343
C      0.8878352336    -1.2324293688     0.7462073975
H      1.4891419203    -2.1289983928     0.7677737254
C     -1.2639322048    -0.0216727559     0.6704961949
H     -2.1217544624    -0.0546866569     1.3450725597
Br    -1.9751537840     0.0456752118    -1.1287550310
