15
attempt 1 | |g_proj| = 1.185e-03 | E = -3010.3508435169 Ha
C     -1.7937209108     1.9495834028     0.7338292752
C     -0.3764121492     1.9903549254     0.7204942303
C      0.2893006881     0.8234934994     0.6783753098
C     -2.5211463106     0.7594694750     0.7407085579
H     -2.3295747318     2.8922652048     0.7561904518
H      0.1604740098     2.9283618807     0.7572677900
H     -3.6011841970     0.7815783831     0.7695888648
N      1.7784927715     0.8305137256     0.7309930546
O      2.3031072491    -0.2495672723     0.8276048890
O      2.3075872854     1.9080358263     0.6910587226
C     -1.8425013310    -0.4241720787     0.7121995524
H     -2.3695015334    -1.3709349464     0.7161721572
C     -0.3760866153    -0.4856820427     0.6257974335
H      0.0467703349    -1.1541480380     1.3768498572
Br    -0.0291054638    -1.3946751905    -1.0474021548
