15
attempt 1 | |g_proj| = 8.732e-04 | E = -3010.3176137792 Ha
C     -1.7509151840     1.9437482456     0.5352394004
C     -0.3465704951     1.9676323740     0.4348302061
C      0.2876238685     0.8028806558     0.6144765519
C     -2.4928953785     0.7880806418     0.7771233715
H     -2.2745024029     2.8804965405     0.4263131838
H      0.1959516231     2.8870863488     0.2656193952
H     -3.5656951959     0.8335886838     0.8472556102
N      1.7486725745     0.8087790811     0.7454888213
O      2.3925194697     1.1952853159    -0.1874434239
O      2.1104732001     0.4634369214     1.8405071567
C     -1.8516299350    -0.4033989032     0.8918696836
H     -2.3989866511    -1.3285868449     1.0274615434
C     -0.3879257276    -0.4899561604     0.7916255279
H      0.0455544292    -1.0462325278     1.6190427462
Br    -0.0651751431    -1.5183635674    -0.8396817311
