15
para_th45_ph0 | OPTIMIZED | |g_proj|=1.967e-03 | E=-3010.3258968533 Ha
C     -0.5042809194     1.2460791633     0.7472138035
C      0.8519094139     1.2580917460     0.7173169802
C      1.5001929878     0.0246093366     0.7020103236
H     -1.0627085877     2.1730368414     0.7498548088
H      1.4247965114     2.1730631658     0.7186843773
N      3.0006043159     0.0459579312     0.6962290693
O      3.5361042524    -1.0288116867     0.6882952195
O      3.5064238617     1.1348576729     0.6824952735
C     -0.4683910071    -1.2542566555     0.7572396090
H     -0.9997352426    -2.1971114828     0.7668280840
C      0.8876619244    -1.2267152406     0.7272424674
H      1.4865614431    -2.1247132400     0.7358603357
C     -1.2617252540    -0.0156419761     0.6724470025
H     -2.0810914186    -0.0244917679     1.3952392500
Br    -2.0504030459    -0.0364333299    -1.0915170047
