15
attempt 1 | |g_proj| = 1.747e-03 | E = -3010.3278577619 Ha
C     -0.8952009043     1.9893258524     0.8455409464
C      0.4875929008     1.9320494675     0.6991580335
C      1.1594849322     0.6940189661     0.6502824074
C      0.4871422897    -0.4649902086     0.6311834074
C     -1.6132360092     0.8315588580     0.8467430101
H     -1.3808056905     2.9416424923     0.9425680932
H      1.0794384094     2.8399920020     0.6414736484
H      1.0100538947    -1.4048527254     0.5875632946
H     -2.6897147626     0.8406068087     0.9458204287
N      2.6283589556     0.7344917236     0.6396522380
O      3.1715698339     0.1037455891     1.5039189848
O      3.1281482373     1.4253616631    -0.2108675585
C     -0.9809615517    -0.4719453538     0.6344177160
H     -1.3864952263    -1.2442480637     1.2883319573
Br    -1.5972085881    -0.9451581254    -1.1743289507
