15
attempt 1 | |g_proj| = 3.000e-03 | E = -3010.3583004381 Ha
C     -0.9135493708     2.0339121049     0.7413629421
C      0.4827729652     1.9550352825     0.7984740550
C      1.1573638904     0.7345072925     0.6580106815
C      0.4928895037    -0.4316822002     0.4943943307
C     -1.6287931531     0.8870904576     0.5756686678
H     -1.4057367131     2.9946031974     0.8097382345
H      1.0801704373     2.8491543619     0.9342868466
H      1.0308162086    -1.3681803785     0.3968835958
H     -2.7108020090     0.9031170915     0.5308729886
N      2.6466321450     0.7390489548     0.6496834983
O      3.1842850217    -0.3177069360     0.4558845464
O      3.1643545238     1.8047371117     0.8539919072
C     -0.9722270879    -0.4277193082     0.5678672194
H     -1.1715686454    -0.8253233569     1.5709818359
Br    -1.8284409817    -1.7289946775    -0.5666436439
