15
attempt 1 | |g_proj| = 1.328e-03 | E = -3010.3417642797 Ha
C     -1.7872061099     1.9605800462     0.7489830826
C     -0.3678681005     1.9962758291     0.7062182103
C      0.2828428155     0.8280850904     0.6412900487
C     -2.5153859568     0.7763301135     0.7444500514
H     -2.3145673848     2.9046165765     0.8051930767
H      0.1695624786     2.9332351449     0.7378642431
H     -3.5922793023     0.7992401802     0.7836102411
N      1.7670450793     0.8205732430     0.7329530034
O      2.2676543599    -0.2717247288     0.7791505821
O      2.3110838466     1.8899161812     0.7494191017
C     -1.8460156908    -0.4137390598     0.6738005188
H     -2.3782321391    -1.3572527316     0.6660738320
C     -0.3849605887    -0.4798374293     0.6242378878
H     -0.0026464042    -1.1288386606     1.4070633875
Br     0.0374721449    -1.4729829847    -1.0105792199
