15
attempt 1 | |g_proj| = 1.673e-04 | E = -3010.3571857430 Ha
C     -0.4776307836     1.2441025741     0.4884705426
C      0.8782769510     1.2559585060     0.6275523644
C      1.5300011909     0.0254288731     0.7176542465
H     -1.0404861905     2.1669115147     0.4169127473
H      1.4530537840     2.1708395306     0.6621791959
N      3.0225893399     0.0442695454     0.8969811840
O      3.5685605113    -1.0258136021     0.8688841931
O      3.5198040182     1.1269331101     1.0537741146
C     -0.4445138170    -1.2502860545     0.5221832068
H     -0.9819138082    -2.1897782573     0.4765086752
C      0.9115504168    -1.2229150609     0.6521152835
H      1.5117638463    -2.1207568998     0.6958602226
C     -1.2273603363    -0.0131576394     0.5351695387
H     -1.6223484285     0.0042624688     1.5663787214
Br    -2.8354274146    -0.0684781299    -0.5151845818
