15
meta_th90_ph126 | OPTIMIZED | |g_proj|=4.306e-03 | E=-3010.3303383641 Ha
C     -0.8891289189     1.9913302542     0.9561390532
C      0.5044155681     1.9119643332     0.9405689214
C      1.1638614307     0.7013322213     0.6638093104
C      0.4745638511    -0.4277005758     0.4350464610
C     -1.6219289781     0.8625345195     0.7619631671
H     -1.3662681521     2.9370693750     1.1314929738
H      1.1086461337     2.7926346169     1.1264916518
H      0.9848420947    -1.3490699505     0.2080047795
H     -2.7025746254     0.8855970692     0.8015272733
N      2.6357570408     0.7337165934     0.6145899362
O      3.1771789628     1.1978693810     1.5863179634
O      3.1389627620     0.3130041469    -0.3899296551
C     -0.9927340206    -0.4396085186     0.5145221918
H     -1.3283223686    -1.1482527825     1.2818051562
Br    -1.6791040552    -1.1608217231    -1.1608915138
