15
attempt 1 | |g_proj| = 2.125e-03 | E = -3010.3505711511 Ha
C     -1.7951361972     1.9502515891     0.7457252965
C     -0.3784596046     1.9912679861     0.7147463574
C      0.2857767922     0.8230700862     0.6752330694
C     -2.5235277254     0.7595208917     0.7579613588
H     -2.3314372644     2.8926570466     0.7793268440
H      0.1598687848     2.9289858879     0.7418905728
H     -3.6034248613     0.7823312095     0.8009302475
N      1.7741194594     0.8237753629     0.7311502575
O      2.2896057395    -0.2520794590     0.8986894935
O      2.3113363163     1.8920675154     0.6187584954
C     -1.8468252450    -0.4237224312     0.7005386457
H     -2.3749086325    -1.3693252888     0.6804902894
C     -0.3802584452    -0.4856887262     0.6139686875
H      0.0269928885    -1.1511794593     1.3781280305
Br     0.0327771220    -1.3774554940    -1.0478096913
15
attempt 2 | |g_proj| = 1.900e-03 | E = -3010.3505721102 Ha
C     -1.7950764231     1.9500675911     0.7454511177
C     -0.3782354603     1.9910142380     0.7149443554
C      0.2857625684     0.8229024909     0.6751679355
C     -2.5234189285     0.7595104568     0.7581647755
H     -2.3313173546     2.8923129181     0.7786991185
H      0.1597922099     2.9287475725     0.7418774035
H     -3.6034430121     0.7821608152     0.8009564668
N      1.7741891402     0.8236195949     0.7318003548
O      2.2898534172    -0.2518987883     0.9005944694
O      2.3113588776     1.8917470770     0.6171818293
C     -1.8465827355    -0.4239329597     0.7006449258
H     -2.3751261534    -1.3695125176     0.6808579720
C     -0.3803007401    -0.4855383467     0.6150393497
H      0.0270917004    -1.1511302562     1.3777677371
Br     0.0319520170    -1.3755931645    -1.0494198519
