15
ortho_th9_ph72 | OPTIMIZED | |g_proj|=1.900e-03 | E=-3010.3505721102 Ha
C     -1.7950764231     1.9500675911     0.7454511177
C     -0.3782354603     1.9910142380     0.7149443554
C      0.2857625684     0.8229024909     0.6751679355
C     -2.5234189285     0.7595104568     0.7581647755
H     -2.3313173546     2.8923129181     0.7786991185
H      0.1597922099     2.9287475725     0.7418774035
H     -3.6034430121     0.7821608152     0.8009564668
N      1.7741891402     0.8236195949     0.7318003548
O      2.2898534172    -0.2518987883     0.9005944694
O      2.3113588776     1.8917470770     0.6171818293
C     -1.8465827355    -0.4239329597     0.7006449258
H     -2.3751261534    -1.3695125176     0.6808579720
C     -0.3803007401    -0.4855383467     0.6150393497
H      0.0270917004    -1.1511302562     1.3777677371
Br     0.0319520170    -1.3755931645    -1.0494198519
