15
ortho_th72_ph108 | OPTIMIZED | |g_proj|=1.680e-03 | E=-3010.3194405167 Ha
C     -1.7677994640     1.9128813435     0.7744857344
C     -0.3667523721     1.9680533071     0.7586704376
C      0.3039525779     0.8020986345     0.7267418530
C     -2.5039272085     0.7249046777     0.7858902456
H     -2.3068475986     2.8469887176     0.7936185620
H      0.1651999267     2.9060271120     0.7909644085
H     -3.5824439945     0.7452096303     0.8312110807
N      1.7686001240     0.8021495971     0.8113028733
O      2.1888779086     0.2901691968     1.8170870025
O      2.3708915694     1.3205052799    -0.0855939281
C     -1.8347822372    -0.4502417478     0.7204038150
H     -2.3648998684    -1.3906065923     0.6826312299
C     -0.3679363993    -0.4958810333     0.5674976102
H      0.1073794700    -1.2810076952     1.1478299239
Br    -0.1630133269    -0.9167736878    -1.3330128701
