15
attempt 1 | |g_proj| = 3.124e-03 | E = -3010.3373104197 Ha
C     -0.9094558402     2.0281999460     0.7490498541
C      0.4885627667     1.9507683198     0.7511277044
C      1.1540022769     0.7206021863     0.6865114133
C      0.4851177996    -0.4504464011     0.6440637795
C     -1.6181216286     0.8751226587     0.7039331165
H     -1.3897433766     2.9941093598     0.7671919837
H      1.0901387672     2.8515558519     0.7779392373
H      1.0066101287    -1.3957692611     0.5873127499
H     -2.6957770514     0.8886203708     0.6949493196
N      2.6364023345     0.7383779807     0.6155299566
O      3.1719351674    -0.3339644086     0.5750916523
O      3.1400777095     1.8302349040     0.6201559086
C     -0.9800599384    -0.4466241132     0.6782307142
H     -1.3268113213    -1.0582178249     1.5131788762
Br    -1.6447110689    -1.3909706089    -0.8928085967
15
attempt 2 | |g_proj| = 8.989e-04 | E = -3010.3374159689 Ha
C     -0.9135628023     2.0292763837     0.7464870110
C      0.4843727141     1.9560859677     0.7483052089
C      1.1527427581     0.7267314678     0.6808596050
C      0.4890346880    -0.4461368795     0.6369884222
C     -1.6177613992     0.8739426503     0.6983309000
H     -1.3981741352     2.9925432321     0.7718791889
H      1.0792333664     2.8605038461     0.7849016876
H      1.0213356374    -1.3870685968     0.5952920052
H     -2.6951976906     0.8875472305     0.6924727053
N      2.6342762543     0.7308065735     0.6162482445
O      3.1570767980    -0.3482461891     0.5734103793
O      3.1513684274     1.8157785510     0.6268654272
C     -0.9752826230    -0.4458649686     0.6721138582
H     -1.3065844518    -1.0512210305     1.5185798454
Br    -1.6547108154    -1.3930792734    -0.8912768149
