15
ortho_th72_ph216 | OPTIMIZED | |g_proj|=1.328e-03 | E=-3010.3296396443 Ha
C     -1.7851624434     1.9517613777     0.6398998828
C     -0.3597537119     1.9797684752     0.6663131895
C      0.3060751935     0.8186743166     0.6865381758
C     -2.4985637717     0.7683100838     0.6823898470
H     -2.3190515668     2.8958591432     0.6031757597
H      0.1611520805     2.9207319066     0.6989055353
H     -3.5744543030     0.7880576273     0.6797117444
N      1.7808360908     0.8342948847     0.7558805144
O      2.3493906871    -0.0878452344     0.2306155268
O      2.2529471154     1.7594341565     1.3552298414
C     -1.8098962953    -0.4097090635     0.7914401558
H     -2.3312195294    -1.3447170828     0.9118562149
C     -0.3526255446    -0.4909943803     0.7072184981
H      0.1045189099    -1.1844453908     1.4121551121
Br    -0.2776938274    -1.4147040519    -1.0316019922
