15
meta_th54_ph144 | OPTIMIZED | |g_proj|=1.360e-04 | E=-3010.3399970840 Ha
C     -0.9100766550     2.0054238358     0.7722435488
C      0.4824221542     1.9463852351     0.6921187777
C      1.1576963290     0.7130015565     0.6653933274
C      0.4937025620    -0.4580553302     0.6577019480
C     -1.6154472915     0.8444257486     0.7969425672
H     -1.3993123998     2.9630536004     0.8180594988
H      1.0747686948     2.8545452559     0.6514164041
H      1.0271115279    -1.3967388011     0.6414889754
H     -2.6932446234     0.8498342615     0.8626587850
N      2.6362615761     0.7371330493     0.6401289952
O      3.1779876975    -0.2571681963     1.0363223598
O      3.1421887022     1.7572339833     0.2485879910
C     -0.9731946341    -0.4677476344     0.6669395973
H     -1.3512141351    -1.1962071756     1.3861092436
Br    -1.6414827813    -1.0935204338    -1.0646543544
