15
attempt 1 | |g_proj| = 2.080e-03 | E = -3010.3192394092 Ha
C     -0.5053238421     1.2296510989     0.9057679069
C      0.8510270176     1.2368367162     0.9223963038
C      1.5053502646     0.0196782207     0.7770450586
H     -1.0707918286     2.1490056491     0.9881277719
H      1.4076182002     2.1527603647     0.9993332057
N      2.9613496137     0.0358838306     0.6092163015
O      3.6032531665    -0.4131679753     1.5173216991
O      3.3124399292     0.4604066723    -0.4576520886
C     -0.4518082459    -1.2528092401     0.6657705023
H     -0.9827706303    -2.1854178651     0.5702413381
C      0.8938893795    -1.2392501940     0.7192872933
H      1.4949778092    -2.1355874153     0.6673862781
C     -1.2465111321    -0.0148071058     0.6765226715
H     -2.1409703575    -0.0897384201     1.2861582178
Br    -1.8658101049     0.1940761408    -1.1814828560
15
attempt 2 | |g_proj| = 1.197e-03 | E = -3010.3192424876 Ha
C     -0.5052353575     1.2301373755     0.9058289422
C      0.8514095373     1.2369259159     0.9227177628
C      1.5050976447     0.0188182120     0.7770454198
H     -1.0713168994     2.1499351628     0.9883539905
H      1.4080328509     2.1537279925     0.9991881935
N      2.9615310537     0.0357314386     0.6096935905
O      3.6040400763    -0.4123423381     1.5174027686
O      3.3123637701     0.4606949131    -0.4571873267
C     -0.4517785286    -1.2531148914     0.6652171757
H     -0.9828954874    -2.1852607446     0.5695963189
C      0.8938134183    -1.2400942253     0.7185676605
H      1.4944887621    -2.1365123428     0.6675584086
C     -1.2465017089    -0.0149298658     0.6755268150
H     -2.1405457663    -0.0890009595     1.2859215268
Br    -1.8665841225     0.1928048349    -1.1799916382
