15
attempt 1 | |g_proj| = 1.645e-03 | E = -3010.3540674006 Ha
C     -0.4756362778     1.2443642644     0.4699567601
C      0.8774124638     1.2521286229     0.6358623661
C      1.5252265700     0.0217349363     0.7325242501
H     -1.0326722087     2.1704819776     0.3891094913
H      1.4535914548     2.1655526239     0.6670557397
N      3.0187512661     0.0408358331     0.9045580417
O      3.5521418994    -1.0328295647     0.9838989389
O      3.5260501144     1.1285289979     0.9603417521
C     -0.4460090488    -1.2526901955     0.4920110819
H     -0.9829167956    -2.1923450389     0.4368092902
C      0.9074141397    -1.2253788576     0.6563423042
H      1.5033353912    -2.1255762703     0.7043105699
C     -1.2251590667    -0.0123451163     0.5210634632
H     -1.5597362732    -0.0093861059     1.5725767797
Br    -2.8758743413    -0.0255556289    -0.4609811653
