15
ortho_th18_ph144 | OPTIMIZED | |g_proj|=2.598e-03 | E=-3010.3453647051 Ha
C     -1.7888136995     1.9421757317     0.7317963473
C     -0.3727598406     1.9882048222     0.7199367358
C      0.2902248953     0.8202229894     0.7010804896
C     -2.5160755494     0.7518306136     0.7575286086
H     -2.3260560077     2.8834595550     0.7385472699
H      0.1617736284     2.9287410402     0.7378256648
H     -3.5951593074     0.7720740703     0.7962504562
N      1.7764987332     0.8240646069     0.7541777181
O      2.2902896702    -0.2358462895     1.0078652446
O      2.3131835671     1.8804034305     0.5588608628
C     -1.8404283266    -0.4319253870     0.7262057293
H     -2.3686115866    -1.3775778789     0.6957710169
C     -0.3741648726    -0.4901078143     0.6231450181
H      0.0631174354    -1.1821082674     1.3463466489
Br    -0.0665196591    -1.2891344498    -1.1056098007
