15
attempt 1 | |g_proj| = 3.135e-04 | E = -3010.3592929823 Ha
C     -0.9143915841     2.0284443937     0.7521752902
C      0.4831647365     1.9584759483     0.7845388661
C      1.1591126402     0.7358628310     0.6612025449
C      0.4948612727    -0.4329765099     0.5211625286
C     -1.6273078237     0.8767817943     0.6185824213
H     -1.4063706242     2.9882136381     0.8208860527
H      1.0807921124     2.8571519542     0.8935853204
H      1.0317276902    -1.3692229491     0.4255676346
H     -2.7097024238     0.8892119426     0.5896882402
N      2.6472780099     0.7467227844     0.6477775151
O      3.1826960399    -0.3264767013     0.5859453831
O      3.1667450830     1.8299565712     0.7141161584
C     -0.9710457442    -0.4365877050     0.5792730622
H     -1.1970184128    -0.9036567499     1.5476915907
Br    -1.8123742375    -1.6403022445    -0.6707349031
