15
attempt 1 | |g_proj| = 8.950e-03 | E = -3010.3462095012 Ha
C     -1.7880892117     1.9552934704     0.7046067029
C     -0.3685364875     1.9866221021     0.7141576883
C      0.3057235734     0.8267346557     0.6570209256
C     -2.5186535762     0.7756404250     0.6727191601
H     -2.3210643324     2.8963037197     0.7517476929
H      0.1691870217     2.9215787248     0.7749022169
H     -3.6004152021     0.7920156135     0.6645259822
N      1.7913623686     0.8523863241     0.7197491766
O      2.3383031526    -0.1608568444     0.3673961258
O      2.3059890251     1.8691500596     1.1007366338
C     -1.8369085039    -0.4097006670     0.7143302753
H     -2.3709671921    -1.3493474241     0.7712776038
C     -0.3701378586    -0.4818850845     0.6714836678
H      0.0466008224    -1.1122050841     1.4458233614
Br    -0.1358945467    -1.5772531856    -0.9407491694
15
attempt 2 | |g_proj| = 2.584e-03 | E = -3010.3463961900 Ha
C     -1.7878180094     1.9579689655     0.7135247937
C     -0.3683106584     1.9856468113     0.7185961676
C      0.3025530630     0.8229783994     0.6529921046
C     -2.5163675882     0.7775425029     0.6692581570
H     -2.3203630033     2.9009316262     0.7517913179
H      0.1663721325     2.9215736010     0.7774607579
H     -3.5966765238     0.7969636235     0.6639707246
N      1.7867343257     0.8458069032     0.7066155690
O      2.3479165909    -0.1586692832     0.3527138489
O      2.2825899590     1.8633020141     1.1084128226
C     -1.8335682734    -0.4061692836     0.7057179760
H     -2.3631670518    -1.3450422423     0.7692367228
C     -0.3692154657    -0.4831414366     0.6726509879
H      0.0432072692    -1.1110304885     1.4570131472
Br    -0.1273877177    -1.5841849032    -0.9302270487
