15
attempt 1 | |g_proj| = 1.882e-03 | E = -3010.3502841187 Ha
C     -0.9240887601     2.0133202827     0.7725375563
C      0.4723863688     1.9498871183     0.6966988601
C      1.1561671704     0.7241521326     0.6692812083
C      0.4957712210    -0.4515491002     0.6585524886
C     -1.6332365608     0.8537650388     0.7733877902
H     -1.4181763252     2.9726250391     0.8205553516
H      1.0665218844     2.8569187587     0.6625151407
H      1.0362881895    -1.3893786535     0.6197563431
H     -2.7162518868     0.8608055327     0.8124949038
N      2.6419906229     0.7410337760     0.6350194514
O      3.1878839157    -0.3167002600     0.7959910917
O      3.1526462019     1.8152337248     0.4526343611
C     -0.9760156037    -0.4595494897     0.6571987522
H     -1.3347380557    -1.1330415872     1.4403152687
Br    -1.5989816540    -1.2359233384    -0.9954808848
