15
meta_th18_ph288 | OPTIMIZED | |g_proj|=1.077e-03 | E=-3010.3614856048 Ha
C     -0.9146576371     2.0312662252     0.7326944492
C      0.4827019239     1.9614979123     0.7839649955
C      1.1571009477     0.7428998370     0.6365343769
C      0.4907859145    -0.4217792867     0.4619948600
C     -1.6319648862     0.8833317849     0.5715205784
H     -1.4077203084     2.9896686313     0.8109805680
H      1.0779579718     2.8551681223     0.9387672275
H      1.0283824561    -1.3547763729     0.3413305713
H     -2.7145507413     0.8969019871     0.5354956496
N      2.6449341545     0.7376818327     0.6672552353
O      3.1752619196    -0.3091397080     0.4095325990
O      3.1703447538     1.7822462287     0.9506214025
C     -0.9712766691    -0.4269762312     0.5497769202
H     -1.1450817139    -0.7781558755     1.5794701468
Br    -1.8340513440    -1.7882360615    -0.4984818479
