15
meta_th9_ph252 | OPTIMIZED | |g_proj|=3.884e-05 | E=-3010.3625009698 Ha
C     -0.9165243178     2.0300638979     0.7461006481
C      0.4817194787     1.9615410055     0.7799815121
C      1.1580230519     0.7412753497     0.6471921002
C      0.4934949584    -0.4263249122     0.4891197909
C     -1.6318571688     0.8797513160     0.5998056138
H     -1.4103313888     2.9886306212     0.8248313063
H      1.0784253556     2.8591153512     0.9039374421
H      1.0322807654    -1.3604927288     0.3791328658
H     -2.7151085601     0.8922309133     0.5752382192
N      2.6470285207     0.7425759489     0.6597821911
O      3.1781924440    -0.3244021498     0.5082413571
O      3.1724095599     1.8118054139     0.8275106464
C     -0.9707997549    -0.4311633032     0.5607829347
H     -1.1695336648    -0.8448728065     1.5607609295
Br    -1.8192525433    -1.7181349212    -0.5909598517
