15
ortho_th81_ph342 | OPTIMIZED | |g_proj|=6.287e-04 | E=-3010.3226032262 Ha
C     -1.7650872648     1.9540022179     0.5012274685
C     -0.3488858382     1.9751880401     0.4285444029
C      0.2787499553     0.8139484849     0.6194682098
C     -2.5007180922     0.8007968380     0.7544360780
H     -2.2870806973     2.8897848420     0.3602881112
H      0.1930539054     2.8917713097     0.2461067487
H     -3.5731972779     0.8426905152     0.8045018970
N      1.7519108823     0.8027183718     0.7093420438
O      2.3454664560     1.5949331868     0.0331565746
O      2.1825426294     0.0064811995     1.5015436652
C     -1.8511378689    -0.3870929113     0.9083676762
H     -2.3941241140    -1.3105943925     1.0672734544
C     -0.3912311237    -0.4737368368     0.8375790791
H      0.0224166409    -0.9827577045     1.7066184093
Br    -0.0161791443    -1.6336563511    -0.6887257708
