15
ortho_th81_ph126 | OPTIMIZED | |g_proj|=4.689e-04 | E=-3010.3167546455 Ha
C     -1.7621119950     1.9141070526     0.7885901047
C     -0.3602270555     1.9729257197     0.7497768223
C      0.3002516444     0.8057551883     0.6990807749
C     -2.4951717038     0.7280062911     0.7938968477
H     -2.2997568044     2.8466000939     0.8301261095
H      0.1714637947     2.9122096173     0.7885265395
H     -3.5713637924     0.7452292458     0.8520387018
N      1.7622834022     0.8025067255     0.8071519748
O      2.1517929319     0.3297005636     1.8439752416
O      2.3848496713     1.2929168332    -0.0912842912
C     -1.8335070020    -0.4521128133     0.7040185490
H     -2.3669972007    -1.3927919995     0.6623756564
C     -0.3692056001    -0.4939140498     0.5541389505
H      0.1041648110    -1.2685946619     1.1481016437
Br    -0.1699659905    -0.9580670711    -1.3407856516
