15
attempt 1 | |g_proj| = 2.607e-03 | E = -3010.3502915664 Ha
C     -1.7906515830     1.9572940561     0.7291084822
C     -0.3721352923     1.9898665327     0.7158938923
C      0.2979282450     0.8267946504     0.6433726609
C     -2.5202412490     0.7735819136     0.6849135914
H     -2.3211921174     2.9007863817     0.7900431616
H      0.1654765113     2.9247688411     0.7833922484
H     -3.6003609264     0.7947469461     0.6862862973
N      1.7865624630     0.8527720013     0.6969031387
O      2.3393255519    -0.1763837123     0.4066242248
O      2.2902277713     1.8900879878     1.0352155552
C     -1.8399617898    -0.4104578082     0.6896581535
H     -2.3709960010    -1.3519515104     0.7341275331
C     -0.3734724676    -0.4833585197     0.6480723742
H      0.0224596057    -1.0893253925     1.4610312480
Br    -0.0664696472    -1.6147455899    -0.9149145474
