15
ortho_th72_ph234 | OPTIMIZED | |g_proj|=1.258e-03 | E=-3010.3284708379 Ha
C     -1.7768939946     1.9595803895     0.6096459804
C     -0.3655461838     1.9902211090     0.6254003641
C      0.3018833227     0.8221582857     0.6593833139
C     -2.5113633289     0.7751471982     0.6954671036
H     -2.3151663343     2.8980554115     0.5464525965
H      0.1557504625     2.9308069851     0.6120127330
H     -3.5890133324     0.8096280698     0.6977360203
N      1.7715524635     0.8179832971     0.7129893726
O      2.3367085558     0.3583347775    -0.2410934600
O      2.2355977825     1.2525483471     1.7338338569
C     -1.8337631297    -0.3933157895     0.8061868457
H     -2.3619150811    -1.3233237100     0.9261798646
C     -0.3696480990    -0.4833969083     0.7350971286
H      0.0493095474    -1.0773118191     1.5496818763
Br    -0.0809935708    -1.5526388710    -0.8792455861
