15
attempt 1 | |g_proj| = 2.830e-03 | E = -3010.3471072101 Ha
C     -0.9084860146     2.0298607990     0.7371479649
C      0.4885694209     1.9542736622     0.7648870896
C      1.1578375267     0.7260775765     0.6767185349
C      0.4896568544    -0.4433022182     0.5865159712
C     -1.6206319374     0.8777002287     0.6533726441
H     -1.3906210654     2.9946671967     0.7698055191
H      1.0914562573     2.8531584831     0.8284717410
H      1.0151050932    -1.3864686681     0.5202009308
H     -2.7006094229     0.8942113657     0.6429365263
N      2.6421939120     0.7435688408     0.6346336713
O      3.1752641233    -0.3257882537     0.5301341304
O      3.1556154985     1.8270747947     0.7312318466
C     -0.9759322857    -0.4415522170     0.6376540984
H     -1.2687825691    -0.9842707664     1.5422101142
Br    -1.7424686616    -1.5176118460    -0.7844630946
15
attempt 2 | |g_proj| = 1.963e-03 | E = -3010.3472151481 Ha
C     -0.9112761944     2.0345657280     0.7449983859
C      0.4862923445     1.9600232172     0.7944977936
C      1.1571504240     0.7343053060     0.6761948053
C      0.4908476620    -0.4339369558     0.5522354958
C     -1.6200464606     0.8832671489     0.6197270987
H     -1.3989772808     2.9968619913     0.7930931846
H      1.0829890505     2.8592444728     0.8995771376
H      1.0221943385    -1.3735709366     0.4670188757
H     -2.6990468381     0.8989490906     0.5823948816
N      2.6434023622     0.7364181447     0.6342372657
O      3.1636354432    -0.3431187570     0.5639811244
O      3.1694955005     1.8158895329     0.6960896786
C     -0.9736217088    -0.4351564067     0.6081632816
H     -1.2281286160    -0.9296732778     1.5536756274
Br    -1.7767432957    -1.6024693159    -0.7144269438
