15
attempt 1 | |g_proj| = 6.864e-04 | E = -3010.3334817532 Ha
C     -0.4570037273     1.2503244537     0.4303095722
C      0.8948657581     1.2476689788     0.5670855637
C      1.5344117432     0.0172865075     0.7139696373
H     -1.0063467811     2.1726735043     0.2923648024
H      1.4747051689     2.1533976328     0.5496471947
N      3.0041238170     0.0189160352     0.8650787361
O      3.5976729952    -0.7857947076     0.2010232247
O      3.4266695763     0.8117542058     1.6615552079
C     -0.4489891484    -1.2273290854     0.6480907462
H     -0.9997094177    -2.1527737557     0.6718330030
C      0.8991570255    -1.2286959296     0.7352405737
H      1.4879782909    -2.1316666130     0.7927961174
C     -1.2281976923     0.0138654093     0.5835561416
H     -1.6909433581     0.1248969405     1.5785497454
Br    -2.7224749304    -0.1370030973    -0.6256605614
