15
para_th9_ph216 | OPTIMIZED | |g_proj|=6.757e-05 | E=-3010.3577165137 Ha
C     -0.4780642400     1.2437613226     0.4869549221
C      0.8777076129     1.2553053272     0.6291730743
C      1.5297193745     0.0251417237     0.7190414911
H     -1.0409147766     2.1667703927     0.4165346393
H      1.4524395407     2.1701577852     0.6646854854
N      3.0223825934     0.0451626729     0.8996711771
O      3.5660420528    -1.0264788363     0.8995801842
O      3.5219000549     1.1302789959     1.0301040753
C     -0.4440024585    -1.2508322761     0.5141471648
H     -0.9812852713    -2.1902342223     0.4643178773
C      0.9117906140    -1.2233058872     0.6501700731
H      1.5118308443    -2.1213725340     0.6945702317
C     -1.2268403830    -0.0138358981     0.5319982031
H     -1.6116088216    -0.0018190589     1.5670049192
Br    -2.8451774605    -0.0611790285    -0.5025138678
