15
attempt 1 | |g_proj| = 6.826e-04 | E = -3010.3314779385 Ha
C     -0.8998521549     1.9873134121     1.0161287927
C      0.4984321702     1.9196853273     1.0029954110
C      1.1553434457     0.7247770315     0.6734600633
C      0.4754862238    -0.4037356893     0.4025997865
C     -1.6189527730     0.8667533535     0.7492694625
H     -1.3767719647     2.9246479466     1.2396304858
H      1.1003929998     2.7918589464     1.2368425450
H      0.9971648567    -1.3090221135     0.1378466648
H     -2.6974195897     0.8832228592     0.7607097084
N      2.6290492161     0.7210567552     0.6086272586
O      3.2028937297     1.5385458243     1.2796641369
O      3.0966312627    -0.1017694502    -0.1260810428
C     -0.9857378007    -0.4247355152     0.4655525333
H     -1.3080702723    -1.1468863879     1.2278226838
Br    -1.6604226233    -1.1701133351    -1.2036108151
