15
meta_th27_ph126 | OPTIMIZED | |g_proj|=1.001e-04 | E=-3010.3490723542 Ha
C     -0.9193185887     2.0074321540     0.7679722011
C      0.4752573174     1.9460234155     0.6864886200
C      1.1583176533     0.7184211193     0.6679671742
C      0.4978312649    -0.4569737588     0.6598649805
C     -1.6259298615     0.8464936992     0.7910246389
H     -1.4129483661     2.9658314795     0.8116856085
H      1.0681599400     2.8533848771     0.6407167096
H      1.0372072670    -1.3950815662     0.6349756761
H     -2.7071222394     0.8509693198     0.8489307190
N      2.6425059266     0.7436042738     0.6422437370
O      3.1926276887    -0.2912851280     0.9036414407
O      3.1469486375     1.8034963882     0.3747779281
C     -0.9734037539    -0.4658110240     0.6614096462
H     -1.3386712489    -1.1739154052     1.4080854966
Br    -1.6332949086    -1.1509908696    -1.0283268930
