15
attempt 1 | |g_proj| = 1.446e-03 | E = -3010.3188888739 Ha
C     -1.7670872417     1.9181244641     0.7337631651
C     -0.3553987458     1.9771150489     0.7161065605
C      0.2968369819     0.8110970728     0.7100122875
C     -2.4929628814     0.7335944606     0.7807589999
H     -2.3034403705     2.8534993962     0.7283508623
H      0.1705102181     2.9209970738     0.7332470772
H     -3.5677272321     0.7485816894     0.8315047098
N      1.7670830921     0.8067650875     0.8148591736
O      2.1962154367    -0.0148012366     1.5842962747
O      2.3597851009     1.6359859997     0.1830144923
C     -1.8265260128    -0.4531312228     0.7485383573
H     -2.3565294679    -1.3977443569     0.7450298178
C     -0.3665498671    -0.4950610496     0.5920866949
H      0.1192978385    -1.2637848779     1.1860238838
Br    -0.2270077496    -0.9967608000    -1.2978643693
