15
ortho_th90_ph126 | OPTIMIZED | |g_proj|=1.422e-03 | E=-3010.3172875003 Ha
C     -1.7601657621     1.9172816617     0.8456181323
C     -0.3608215635     1.9730264814     0.7858002903
C      0.2974027242     0.8078581422     0.6679742042
C     -2.4987929019     0.7345083887     0.7895064453
H     -2.2916513035     2.8486666462     0.9486701178
H      0.1725252979     2.9089772399     0.8644048729
H     -3.5745859921     0.7553355300     0.8509349452
N      1.7594619535     0.8116707103     0.7745556381
O      2.1423088356     0.5573104729     1.8871609598
O      2.3863516689     1.0969660692    -0.2053372483
C     -1.8431958175    -0.4413640980     0.6420108171
H     -2.3810018060    -1.3769871584     0.5658859616
C     -0.3759659886    -0.4922120820     0.5198099200
H      0.0615265923    -1.2394188602     1.1764225987
Br    -0.0868968258    -1.0771424087    -1.3236896823
