15
attempt 1 | |g_proj| = 2.310e-03 | E = -3010.3250181499 Ha
C     -1.7709194759     1.9203570456     0.6971224768
C     -0.3569479382     1.9717042457     0.7129233541
C      0.2982761510     0.8061479721     0.7264337863
C     -2.4975250238     0.7360306698     0.7671997950
H     -2.3051176454     2.8583305613     0.6491208552
H      0.1777565753     2.9103984687     0.7345543572
H     -3.5741441884     0.7546538454     0.8021077094
N      1.7754804845     0.8139624588     0.8230141902
O      2.2458549660    -0.1283849804     1.4080795498
O      2.3385122600     1.7681463491     0.3624827034
C     -1.8267030393    -0.4511281320     0.7834075606
H     -2.3544673956    -1.3970065756     0.8035703146
C     -0.3657797977    -0.5011148449     0.6070426124
H      0.1353507278    -1.2729277914     1.1883259538
Br    -0.2731275815    -1.0046925194    -1.2756572092
