15
attempt 1 | |g_proj| = 2.081e-03 | E = -3010.3496893591 Ha
C     -1.7946910773     1.9495707336     0.7449903118
C     -0.3781377403     1.9907789626     0.7149373200
C      0.2860399630     0.8226511592     0.6768786365
C     -2.5233391907     0.7590145735     0.7578320558
H     -2.3310120374     2.8918072108     0.7774928363
H      0.1598898335     2.9285287871     0.7419102423
H     -3.6032472445     0.7817806003     0.8009320686
N      1.7744986730     0.8234511644     0.7315981186
O      2.2902134182    -0.2513988170     0.9044661824
O      2.3114581331     1.8914278934     0.6148542656
C     -1.8467759880    -0.4242649840     0.7016903347
H     -2.3753859082    -1.3697124789     0.6813466830
C     -0.3800140661    -0.4860386676     0.6139973858
H      0.0278153700    -1.1514963528     1.3779164010
Br     0.0291869730    -1.3716230490    -1.0511148694
15
attempt 2 | |g_proj| = 2.081e-03 | E = -3010.3496893601 Ha
C     -1.7946910781     1.9495707345     0.7449903122
C     -0.3781377405     1.9907789635     0.7149373203
C      0.2860399631     0.8226511596     0.6768786368
C     -2.5233391919     0.7590145739     0.7578320562
H     -2.3310120385     2.8918072122     0.7774928367
H      0.1598898336     2.9285287885     0.7419102427
H     -3.6032472462     0.7817806007     0.8009320690
N      1.7744986738     0.8234511648     0.7315981189
O      2.2902134193    -0.2513988171     0.9044661828
O      2.3114581342     1.8914278943     0.6148542659
C     -1.8467759889    -0.4242649842     0.7016903350
H     -2.3753859093    -1.3697124795     0.6813466833
C     -0.3800140663    -0.4860386678     0.6139973861
H      0.0278153700    -1.1514963533     1.3779164017
Br     0.0291869730    -1.3716230496    -1.0511148699
15
attempt 3 | |g_proj| = 2.081e-03 | E = -3010.3496893452 Ha
C     -1.7946910789     1.9495707354     0.7449903126
C     -0.3781377407     1.9907789644     0.7149373206
C      0.2860399632     0.8226511600     0.6768786371
C     -2.5233391931     0.7590145743     0.7578320566
H     -2.3310120396     2.8918072136     0.7774928371
H      0.1598898337     2.9285287899     0.7419102431
H     -3.6032472479     0.7817806011     0.8009320694
N      1.7744986746     0.8234511652     0.7315981192
O      2.2902134204    -0.2513988172     0.9044661832
O      2.3114581353     1.8914278952     0.6148542662
C     -1.8467759898    -0.4242649844     0.7016903353
H     -2.3753859104    -1.3697124801     0.6813466836
C     -0.3800140665    -0.4860386680     0.6139973864
H      0.0278153700    -1.1514963538     1.3779164024
Br     0.0291869730    -1.3716230502    -1.0511148704
15
attempt 4 | |g_proj| = 2.081e-03 | E = -3010.3496893575 Ha
C     -1.7946910797     1.9495707363     0.7449903130
C     -0.3781377409     1.9907789653     0.7149373209
C      0.2860399633     0.8226511604     0.6768786374
C     -2.5233391943     0.7590145747     0.7578320570
H     -2.3310120407     2.8918072150     0.7774928375
H      0.1598898338     2.9285287913     0.7419102435
H     -3.6032472496     0.7817806015     0.8009320698
N      1.7744986754     0.8234511656     0.7315981195
O      2.2902134215    -0.2513988173     0.9044661836
O      2.3114581364     1.8914278961     0.6148542665
C     -1.8467759907    -0.4242649846     0.7016903356
H     -2.3753859115    -1.3697124807     0.6813466839
C     -0.3800140667    -0.4860386682     0.6139973867
H      0.0278153700    -1.1514963543     1.3779164031
Br     0.0291869730    -1.3716230508    -1.0511148709
15
attempt 5 | |g_proj| = 2.081e-03 | E = -3010.3496893431 Ha
C     -1.7946910805     1.9495707372     0.7449903134
C     -0.3781377411     1.9907789662     0.7149373212
C      0.2860399634     0.8226511608     0.6768786377
C     -2.5233391955     0.7590145751     0.7578320574
H     -2.3310120418     2.8918072164     0.7774928379
H      0.1598898339     2.9285287927     0.7419102439
H     -3.6032472513     0.7817806019     0.8009320702
N      1.7744986762     0.8234511660     0.7315981198
O      2.2902134226    -0.2513988174     0.9044661840
O      2.3114581375     1.8914278970     0.6148542668
C     -1.8467759916    -0.4242649848     0.7016903359
H     -2.3753859126    -1.3697124813     0.6813466842
C     -0.3800140669    -0.4860386684     0.6139973870
H      0.0278153700    -1.1514963548     1.3779164038
Br     0.0291869730    -1.3716230514    -1.0511148714
15
attempt 6 | |g_proj| = 2.081e-03 | E = -3010.3496893554 Ha
C     -1.7946910813     1.9495707381     0.7449903138
C     -0.3781377413     1.9907789671     0.7149373215
C      0.2860399635     0.8226511612     0.6768786380
C     -2.5233391967     0.7590145755     0.7578320578
H     -2.3310120429     2.8918072178     0.7774928383
H      0.1598898340     2.9285287941     0.7419102443
H     -3.6032472530     0.7817806023     0.8009320706
N      1.7744986770     0.8234511664     0.7315981201
O      2.2902134237    -0.2513988175     0.9044661844
O      2.3114581386     1.8914278979     0.6148542671
C     -1.8467759925    -0.4242649850     0.7016903362
H     -2.3753859137    -1.3697124819     0.6813466845
C     -0.3800140671    -0.4860386686     0.6139973873
H      0.0278153700    -1.1514963553     1.3779164045
Br     0.0291869730    -1.3716230520    -1.0511148719
15
attempt 1 | |g_proj| = 2.081e-03 | E = -3010.3496893739 Ha
C     -1.7946910773     1.9495707336     0.7449903118
C     -0.3781377403     1.9907789626     0.7149373200
C      0.2860399630     0.8226511592     0.6768786365
C     -2.5233391907     0.7590145735     0.7578320558
H     -2.3310120374     2.8918072108     0.7774928363
H      0.1598898335     2.9285287871     0.7419102423
H     -3.6032472445     0.7817806003     0.8009320686
N      1.7744986730     0.8234511644     0.7315981186
O      2.2902134182    -0.2513988170     0.9044661824
O      2.3114581331     1.8914278934     0.6148542656
C     -1.8467759880    -0.4242649840     0.7016903347
H     -2.3753859082    -1.3697124789     0.6813466830
C     -0.3800140661    -0.4860386676     0.6139973858
H      0.0278153700    -1.1514963528     1.3779164010
Br     0.0291869730    -1.3716230490    -1.0511148694
