15
para_th18_ph144 | OPTIMIZED | |g_proj|=1.046e-03 | E=-3010.3570026385 Ha
C     -0.4775792099     1.2403952156     0.5193420100
C      0.8777218477     1.2546592446     0.6553565468
C      1.5297071172     0.0239115791     0.7257812206
H     -1.0408222361     2.1637453914     0.4711531666
H      1.4520275286     2.1701748888     0.6918425815
N      3.0231053490     0.0478271400     0.8864311039
O      3.5434809063    -1.0114111669     1.1124888546
O      3.5456160609     1.1247153557     0.7802703470
C     -0.4429591278    -1.2540812301     0.4978513300
H     -0.9794238105    -2.1929873150     0.4282509791
C      0.9115906499    -1.2248739870     0.6463030849
H      1.5110580698    -2.1227220180     0.6887677257
C     -1.2270271506    -0.0180157393     0.5373993943
H     -1.6364661659    -0.0418086259     1.5609472484
Br    -2.8241105645    -0.0120082553    -0.5367459571
