15
attempt 1 | |g_proj| = 3.460e-04 | E = -3010.3175291673 Ha
C     -0.9286101157     2.0078783137     0.8498404418
C      0.4617416879     1.9287093515     0.7498558333
C      1.1396000139     0.7099400576     0.7404622275
C      0.4905326729    -0.4692160311     0.7748235715
C     -1.6315902072     0.8517166929     0.8254598517
H     -1.4225465499     2.9670718718     0.8925991646
H      1.0451672739     2.8323282908     0.6684247437
H      1.0290888036    -1.4092958605     0.7691228073
H     -2.7103837876     0.8667907770     0.8389666012
N      2.6068442470     0.7140333511     0.5738176116
O      3.2254178452    -0.1649599788     1.1091872422
O      3.0145035599     1.5924993912    -0.1354782388
C     -0.9752460124    -0.4602903629     0.6993409686
H     -1.4368252122    -1.2343393583     1.3007938439
Br    -1.2995275042    -0.9312675830    -1.1857590358
