15
ortho_th81_ph252 | OPTIMIZED | |g_proj|=1.436e-03 | E=-3010.3254079033 Ha
C     -1.7736190774     1.9582575424     0.5818723939
C     -0.3709519101     1.9931237718     0.5579474115
C      0.2981128840     0.8258717549     0.6640738715
C     -2.5182801974     0.7775608647     0.7278290912
H     -2.3121428149     2.8913920792     0.4847302768
H      0.1543152670     2.9258228809     0.4594078823
H     -3.5969162270     0.8171935196     0.7421788275
N      1.7638716162     0.7913807161     0.7020652253
O      2.3277747817     0.7548689462    -0.3537714208
O      2.2214900418     0.7743262042     1.8148186556
C     -1.8478512402    -0.3875101090     0.8390604501
H     -2.3770204696    -1.3183593882     0.9494974572
C     -0.3787290587    -0.4731824254     0.7842982564
H      0.0203223603    -1.0212682272     1.6399086727
Br     0.0361231199    -1.5250013533    -0.8041890361
