15
ortho_th54_ph36 | OPTIMIZED | |g_proj|=3.710e-03 | E=-3010.3366678727 Ha
C     -1.7979239218     1.9469955753     0.7493450235
C     -0.3801668173     1.9876021658     0.7106107630
C      0.2777442347     0.8190066528     0.6991089385
C     -2.5183363764     0.7530991136     0.7852847810
H     -2.3388947158     2.8872703645     0.7725785389
H      0.1488025294     2.9258754108     0.7114379017
H     -3.5943528526     0.7775880461     0.8409039499
N      1.7581032102     0.7972808333     0.7643179551
O      2.2483956800    -0.2244362306     1.1747072817
O      2.3086267996     1.7940814698     0.3922769210
C     -1.8387254102    -0.4248464762     0.7080567665
H     -2.3600868033    -1.3698174588     0.6870242656
C     -0.3792291754    -0.4847470445     0.6179652742
H      0.0452781898    -1.1993926894     1.3241955880
Br     0.0672645401    -1.2010829967    -1.1480859755
