15
attempt 1 | |g_proj| = 3.068e-03 | E = -3010.3270085245 Ha
C     -1.7717000257     1.9547516218     0.6146964111
C     -0.3651038424     1.9816104402     0.6191297353
C      0.3069581675     0.8134729993     0.6499049517
C     -2.5181106298     0.7753718685     0.6989477885
H     -2.3016121366     2.8960499998     0.5598205214
H      0.1637566936     2.9178917496     0.6027181990
H     -3.5975937904     0.8124487142     0.7038136481
N      1.7791654990     0.8221624063     0.7042183798
O      2.3606098423     0.4120813383    -0.2614265187
O      2.2303154556     1.2351482518     1.7398758763
C     -1.8450710018    -0.3941929652     0.8000193047
H     -2.3750623506    -1.3255532570     0.9111909068
C     -0.3753646485    -0.4898353740     0.7341870262
H      0.0244381636    -1.0597757715     1.5750983530
Br    -0.0691263200    -1.5671552450    -0.8624665682
15
attempt 2 | |g_proj| = 1.815e-03 | E = -3010.3270217787 Ha
C     -1.7712482951     1.9541650133     0.6151737073
C     -0.3643617580     1.9813205018     0.6189161635
C      0.3063171735     0.8133160361     0.6497321122
C     -2.5171567805     0.7749720582     0.6992999830
H     -2.3018862606     2.8955672837     0.5604812634
H      0.1638068777     2.9180342115     0.6018016080
H     -3.5959863749     0.8127205411     0.7041299230
N      1.7774613505     0.8224316625     0.7042334504
O      2.3567899752     0.4127837089    -0.2627989314
O      2.2295286035     1.2327355992     1.7407495438
C     -1.8440575294    -0.3939285136     0.7990601729
H     -2.3745314906    -1.3238778543     0.9102900327
C     -0.3766964867    -0.4873583659     0.7351654258
H      0.0241931971    -1.0602151357     1.5716376019
Br    -0.0656731300    -1.5681899651    -0.8581440369
