15
ortho_th72_ph198 | OPTIMIZED | |g_proj|=1.454e-03 | E=-3010.3304043211 Ha
C     -1.7859029204     1.9468260954     0.6656615118
C     -0.3589950746     1.9792588076     0.6928887197
C      0.2991988011     0.8169591921     0.7097480209
C     -2.4971838830     0.7613208514     0.7073104938
H     -2.3177027424     2.8912075326     0.6217006834
H      0.1679746492     2.9180710230     0.7208155257
H     -3.5721666379     0.7781479692     0.7073817677
N      1.7786041270     0.8304557877     0.7712504619
O      2.3234225984    -0.2276048650     0.5845932270
O      2.2734944614     1.8920313739     1.0265424528
C     -1.8110967575    -0.4215314402     0.7865591205
H     -2.3343731497    -1.3624094487     0.8639731241
C     -0.3547766146    -0.4933522286     0.6887921846
H      0.1133380672    -1.2209332174     1.3494006902
Br    -0.2773358366    -1.3039706699    -1.1068899829
