15
attempt 1 | |g_proj| = 1.902e-04 | E = -3010.3478866459 Ha
C     -0.9136211722     2.0119964190     0.7603653441
C      0.4818251654     1.9496323684     0.7048948229
C      1.1595332207     0.7190779369     0.6674321580
C      0.4962047137    -0.4542795720     0.6377518121
C     -1.6207863894     0.8518532392     0.7640269147
H     -1.4049863211     2.9708549860     0.8030734007
H      1.0770122929     2.8566760683     0.6885272263
H      1.0323726720    -1.3931237111     0.6061006672
H     -2.7012202742     0.8578684653     0.8105411640
N      2.6426226703     0.7429232817     0.6434778020
O      3.1882877113    -0.2966593815     0.8925754173
O      3.1489424572     1.8070958915     0.3972375960
C     -0.9725502465    -0.4619078818     0.6558005315
H     -1.3211253360    -1.1471784190     1.4315689751
Br    -1.6843444323    -1.2132307038    -0.9919161350
