15
attempt 1 | |g_proj| = 5.044e-03 | E = -3010.3235731901 Ha
C     -0.8996825347     1.9846293141     0.9409869801
C      0.4922603756     1.9204131785     0.8836845407
C      1.1641379988     0.7122158763     0.6562265065
C      0.4817704378    -0.4327674043     0.5060672340
C     -1.6343270347     0.8488236278     0.8157141930
H     -1.3919140837     2.9267585707     1.0910212539
H      1.0777088223     2.8235071846     0.9972072910
H      0.9959910031    -1.3630434111     0.3284957370
H     -2.7164123187     0.8641535842     0.8832391009
N      2.6354218223     0.7150525533     0.6023462073
O      3.1858066675     1.0252462188     1.6270789085
O      3.1321641812     0.4182155130    -0.4509915230
C     -0.9861792841    -0.4421107358     0.5652028282
H     -1.3680861753    -1.2038378202     1.2390167513
Br    -1.5604931574    -0.9956573084    -1.2138383572
