15
para_th45_ph288 | OPTIMIZED | |g_proj|=1.922e-03 | E=-3010.3397557138 Ha
C     -0.4586042685     1.2572294105     0.5129494089
C      0.8929928126     1.2618976399     0.5970492902
C      1.5345876568     0.0207683705     0.7091312773
H     -1.0088850290     2.1789841760     0.4023488602
H      1.4804140846     2.1670105496     0.5864417895
N      3.0111700479     0.0154314047     0.8155442681
O      3.5698357453    -0.8376026522     0.1808802237
O      3.4800121155     0.8658930252     1.5225200155
C     -0.4621852674    -1.2213785415     0.7170373837
H     -1.0154533743    -2.1494301632     0.7635883432
C      0.8942835651    -1.2176419650     0.7376759414
H      1.4799967332    -2.1211760126     0.7829914603
C     -1.2395381120     0.0176046626     0.6136999096
H     -1.8532710349     0.1172883034     1.5223160507
Br    -2.5394363505    -0.2073577286    -0.7987345135
