15
para_th18_ph18 | OPTIMIZED | |g_proj|=8.250e-05 | E=-3010.3452853276 Ha
C     -0.4919685586     1.2421609512     0.6546978401
C      0.8664434245     1.2556810702     0.6927960018
C      1.5211341650     0.0235072597     0.7118655565
H     -1.0568184441     2.1664999043     0.6367881525
H      1.4415811374     2.1698726240     0.7107132318
N      3.0226689113     0.0482478135     0.7784016102
O      3.5607420626    -1.0206912237     0.8833045349
O      3.5318193926     1.1341535212     0.7093835854
C     -0.4533597303    -1.2557015096     0.6463723013
H     -0.9896420859    -2.1963479933     0.6217753084
C      0.9044340720    -1.2290537231     0.6934493216
H      1.5073587519    -2.1254070279     0.7191617711
C     -1.2469162003    -0.0182567934     0.6162283294
H     -1.9180848495    -0.0362931133     1.4857854183
Br    -2.4334728135    -0.0108512824    -0.8952833635
