15
meta_th36_ph180 | OPTIMIZED | |g_proj|=8.875e-04 | E=-3010.3521698035 Ha
C     -0.9098049498     2.0314194158     0.7480394673
C      0.4863961432     1.9553667356     0.8007252986
C      1.1583174518     0.7309436374     0.6717497655
C      0.4923792831    -0.4358489541     0.5325578293
C     -1.6214097914     0.8822700450     0.6053716936
H     -1.3973369015     2.9935408935     0.8072033076
H      1.0823725355     2.8528957945     0.9236846852
H      1.0249909771    -1.3740058297     0.4393726465
H     -2.7015300949     0.9003679802     0.5611629792
N      2.6442512952     0.7411364359     0.6392338757
O      3.1758676936    -0.3337206091     0.5833483725
O      3.1615959616     1.8258270104     0.6891865780
C     -0.9727457910    -0.4348228689     0.5884896345
H     -1.2072619185    -0.8986784717     1.5556518505
Br    -1.8079151585    -1.6350922136    -0.6743202739
