15
meta_th9_ph144 | OPTIMIZED | |g_proj|=1.494e-04 | E=-3010.3582128734 Ha
C     -0.9183429477     2.0239994979     0.7609937852
C      0.4802720121     1.9591621011     0.7390488099
C      1.1594344305     0.7336545445     0.6605758666
C      0.4962494572    -0.4397054692     0.5749202249
C     -1.6303156000     0.8670933103     0.6904789610
H     -1.4118458576     2.9834247112     0.8225121351
H      1.0780139139     2.8637289607     0.7794258965
H      1.0352497102    -1.3772779357     0.5038323397
H     -2.7137659255     0.8753888795     0.6990065297
N      2.6475755343     0.7468385995     0.6477543582
O      3.1864368219    -0.3263818192     0.6722935668
O      3.1651977339     1.8329335971     0.6222623185
C     -0.9726196526    -0.4458566474     0.6133220547
H     -1.2571168646    -1.0124729813     1.5072104933
Br    -1.7362560380    -1.4829303807    -0.8221796613
