15
attempt 1 | |g_proj| = 2.971e-03 | E = -3010.3207724850 Ha
C     -0.4747904982     1.2257905107     0.8295117176
C      0.8733589018     1.2491197901     0.7928699343
C      1.5143202910     0.0106788934     0.6948850021
H     -1.0317928405     2.1426297790     0.9203305957
H      1.4515033758     2.1616525230     0.8284104593
N      2.9843032853     0.0345734485     0.6876012592
O      3.4853965020    -0.5577905442     1.6027386587
O      3.4927518732     0.6663301315    -0.1964764037
C     -0.4662538718    -1.2620928307     0.6267760634
H     -1.0103797324    -2.1965190384     0.5575239100
C      0.8890180542    -1.2333744314     0.6414525961
H      1.4760269474    -2.1333526017     0.6038603778
C     -1.2434638218    -0.0189808855     0.6882913110
H     -2.0355442999    -0.0937875992     1.4282251172
Br    -2.1385349051     0.1526433329    -1.0405609670
15
attempt 2 | |g_proj| = 1.146e-03 | E = -3010.3207964431 Ha
C     -0.4756686706     1.2277379553     0.8234200368
C      0.8726988488     1.2505246731     0.7887310867
C      1.5151922844     0.0122304565     0.6991517359
H     -1.0301700753     2.1464460221     0.9163942410
H      1.4474375417     2.1646870103     0.8302273838
N      2.9855227508     0.0331874027     0.6920957343
O      3.4894716434    -0.5649756879     1.6020484291
O      3.4926121996     0.6636823263    -0.1943654057
C     -0.4646778966    -1.2599471482     0.6234039608
H     -1.0043659450    -2.1965431760     0.5523720618
C      0.8904921948    -1.2315759176     0.6410838034
H      1.4752034481    -2.1336227383     0.6034907977
C     -1.2457588723    -0.0183987195     0.6901145630
H     -2.0363387560    -0.0953458234     1.4337807285
Br    -2.1457314309     0.1494338426    -1.0365095210
