15
attempt 1 | |g_proj| = 1.849e-03 | E = -3010.3179935367 Ha
C     -0.9171856319     2.0262743087     0.7540896563
C      0.4756028295     1.9339656081     0.7172868148
C      1.1469473022     0.7097600958     0.6786771335
C      0.4870143919    -0.4636553312     0.6912862697
C     -1.6288734542     0.8775262296     0.7453392548
H     -1.4010662448     2.9907444989     0.7708735246
H      1.0761935038     2.8293560022     0.7079926256
H      1.0204383746    -1.4069915049     0.6659532417
H     -2.7078088310     0.9051518695     0.7569341237
N      2.6319597441     0.7222575674     0.5942727792
O      3.1887441965    -0.3369901346     0.5163883910
O      3.1244163837     1.8131709039     0.6136775929
C     -0.9838631468    -0.4473279588     0.7094324630
H     -1.3612846170    -1.0795037910     1.5116654819
Br    -1.5430680734    -1.2721393951    -0.9624116741
