15
attempt 1 | |g_proj| = 1.472e-03 | E = -3010.3214151962 Ha
C     -1.7571013570     1.9492934876     0.6230967251
C     -0.3554317613     1.9754543217     0.6113976102
C      0.3045080474     0.8023631323     0.6448420000
C     -2.5136181723     0.7794718785     0.7071947699
H     -2.2795068545     2.8908987134     0.5752628462
H      0.1850985824     2.9082945367     0.5803108020
H     -3.5923760841     0.8162861601     0.7162395649
N      1.7742088586     0.8272331952     0.6972141953
O      2.3537472681     0.5102041402    -0.3033723076
O      2.2219176504     1.1976931650     1.7506585426
C     -1.8604882126    -0.4029043688     0.7883596497
H     -2.4046917266    -1.3317316308     0.8847249119
C     -0.3891676671    -0.4957052608     0.7354917724
H     -0.0165229257    -1.0433548195     1.5997668635
Br    -0.0240765859    -1.5990198554    -0.8214599126
