15
meta_th54_ph162 | OPTIMIZED | |g_proj|=4.315e-04 | E=-3010.3420030390 Ha
C     -0.9109916206     2.0204230045     0.7557401667
C      0.4859243756     1.9564352554     0.7293709613
C      1.1567076458     0.7244517830     0.6726002119
C      0.4915059995    -0.4474349924     0.6303250311
C     -1.6165437601     0.8619840902     0.7329828291
H     -1.3986394363     2.9805741685     0.7931421684
H      1.0804785275     2.8634951709     0.7421587773
H      1.0238988472    -1.3871211395     0.5906586787
H     -2.6951162663     0.8711406942     0.7565103253
N      2.6382416466     0.7356370139     0.6323968214
O      3.1681618359    -0.3273874477     0.7999009373
O      3.1534342588     1.8090038384     0.4585611258
C     -0.9733106670    -0.4542666693     0.6622818654
H     -1.3141257579    -1.1095034771     1.4671960221
Br    -1.6814589039    -1.2958323334    -0.9523682522
