15
attempt 1 | |g_proj| = 2.129e-03 | E = -3010.3225135552 Ha
C     -1.7787120110     1.9189758786     0.7952384149
C     -0.3781531996     1.9783534301     0.7786020795
C      0.2999350618     0.8142297983     0.7314004801
C     -2.5131817253     0.7259863044     0.7838852454
H     -2.3246800127     2.8497568868     0.8210681059
H      0.1451247817     2.9188963049     0.8168100652
H     -3.5923318031     0.7475835391     0.8270122244
N      1.7655888614     0.7877473634     0.7857222729
O      2.2029598475     0.2738204812     1.7830697168
O      2.3535383470     1.2624944910    -0.1438336563
C     -1.8363105446    -0.4394202069     0.6969680796
H     -2.3625807475    -1.3795960917     0.6459312432
C     -0.3671894175    -0.4844978700     0.5715442594
H      0.0863606271    -1.2496223638     1.1992909724
Br    -0.0538689504    -0.9402312144    -1.3029815341
15
attempt 2 | |g_proj| = 1.822e-03 | E = -3010.3225339434 Ha
C     -1.7788464268     1.9209786859     0.7904547191
C     -0.3779794850     1.9768348292     0.7783431188
C      0.2997301334     0.8124219344     0.7352971698
C     -2.5121104626     0.7274892575     0.7852050523
H     -2.3262736662     2.8514725985     0.8199413762
H      0.1444174154     2.9171662564     0.8129246561
H     -3.5908894132     0.7485598679     0.8284057754
N      1.7644375161     0.7875728645     0.7890616786
O      2.1998978344     0.2790248225     1.7900347326
O      2.3536603684     1.2603024337    -0.1407461947
C     -1.8344516545    -0.4379317205     0.7016511518
H     -2.3570202745    -1.3793784028     0.6501383879
C     -0.3669390041    -0.4847263945     0.5692818446
H      0.0902706020    -1.2560245434     1.1847728356
Br    -0.0614043719    -0.9392857538    -1.3050383303
