15
attempt 1 | |g_proj| = 5.584e-03 | E = -3010.3312095374 Ha
C     -0.4680821220     1.2337280994     0.7092207989
C      0.8801184507     1.2529387751     0.7681947015
C      1.5188157925     0.0127207715     0.7478663690
H     -1.0194280627     2.1576972727     0.7369994073
H      1.4557621160     2.1674533084     0.7870358779
N      2.9942490665     0.0332841705     0.7493582383
O      3.5193996115    -0.8130086891     1.4198681844
O      3.4878401667     0.9028845691     0.0824531294
C     -0.4533760803    -1.2550751141     0.5766931274
H     -0.9839858708    -2.1933086274     0.4855745273
C      0.8983090056    -1.2319892088     0.6919019219
H      1.4868486094    -2.1337815800     0.7002392283
C     -1.2363463077    -0.0152778913     0.6247827114
H     -1.8909012651    -0.0815132950     1.4968447418
Br    -2.4233038379     0.1107679171    -0.9115933196
15
attempt 2 | |g_proj| = 2.865e-03 | E = -3010.3312902436 Ha
C     -0.4701251557     1.2371530081     0.7065049992
C      0.8788979302     1.2522632792     0.7675511515
C      1.5202219156     0.0119747506     0.7432626535
H     -1.0271216714     2.1606517722     0.7326541597
H      1.4560652140     2.1645794116     0.7883136152
N      2.9998598603     0.0327743045     0.7458140350
O      3.5228857807    -0.8106629485     1.4205932354
O      3.5022573090     0.9032428147     0.0885080622
C     -0.4551789913    -1.2574480214     0.5731618114
H     -0.9912167510    -2.1952648047     0.4841195131
C      0.8970191670    -1.2326608723     0.6923954611
H      1.4885033589    -2.1312996886     0.7012473913
C     -1.2346025799    -0.0151974004     0.6279596889
H     -1.8967596211    -0.0834783154     1.4939974039
Br    -2.4247864893     0.1108931886    -0.9006435316
15
attempt 3 | |g_proj| = 1.827e-03 | E = -3010.3313065192 Ha
C     -0.4702741363     1.2357994502     0.7079687576
C      0.8791841860     1.2524728929     0.7653426456
C      1.5210831240     0.0126511528     0.7414025401
H     -1.0274642192     2.1585155206     0.7301576094
H      1.4570256774     2.1648934291     0.7881687854
N      3.0021182436     0.0338417639     0.7474310187
O      3.5220650282    -0.8126515448     1.4213992113
O      3.5053775608     0.9047684024     0.0903422236
C     -0.4550745322    -1.2568106684     0.5755752134
H     -0.9922155490    -2.1930921660     0.4833754702
C      0.8979042777    -1.2324155678     0.6898416090
H      1.4893596950    -2.1319497760     0.7014684628
C     -1.2360105346    -0.0155053641     0.6283006530
H     -1.8974141943    -0.0843758521     1.4946851393
Br    -2.4297453475     0.1113788056    -0.9000196851
