15
attempt 1 | |g_proj| = 2.049e-04 | E = -3010.3330461685 Ha
C     -0.9134072315     1.9835449184     0.8107228850
C      0.4691538330     1.9212702725     0.6553163267
C      1.1563017040     0.6934293165     0.6761435040
C      0.4957508912    -0.4748144801     0.7237080323
C     -1.6233245156     0.8236245195     0.8746852160
H     -1.4069068825     2.9376243116     0.8666120219
H      1.0549933467     2.8250020596     0.5355566060
H      1.0302174859    -1.4125406541     0.7408113732
H     -2.7019519474     0.8294515755     0.9696161070
N      2.6313995274     0.7337607129     0.6356525632
O      3.2042082700    -0.1100565267     1.2690876949
O      3.1084589784     1.6210337998    -0.0248562886
C     -0.9764509660    -0.4802632146     0.6671273081
H     -1.4133493847    -1.2803908636     1.2623296733
Br    -1.5069263877    -0.8090768017    -1.1910553670
