15
attempt 1 | |g_proj| = 1.510e-04 | E = -3010.3186447187 Ha
C     -0.9324954578     1.9927701477     0.8591942148
C      0.4504924602     1.9194303311     0.6929575167
C      1.1395518472     0.7058470743     0.7246260090
C      0.4918088011    -0.4714758789     0.7954547819
C     -1.6391167048     0.8353286569     0.8873894922
H     -1.4305323781     2.9479957206     0.9179090693
H      1.0253223501     2.8216790419     0.5505147839
H      1.0334827534    -1.4091299628     0.8059787475
H     -2.7190382681     0.8473351298     0.9463941687
N      2.6093710245     0.7087497507     0.5906355082
O      3.2161410020    -0.0822576523     1.2613771899
O      3.0369285658     1.4868200757    -0.2197636245
C     -0.9763517238    -0.4666621662     0.6890010651
H     -1.4530640029    -1.2857197175     1.2139187538
Br    -1.2443335502    -0.7491116143    -1.2441300288
