15
attempt 1 | |g_proj| = 3.114e-03 | E = -3010.3319517652 Ha
C     -1.7902945558     1.9449067406     0.7095250219
C     -0.3658959096     1.9917136468     0.7070577687
C      0.2810454797     0.8248806980     0.7021269188
C     -2.5006428465     0.7542154971     0.7482668930
H     -2.3254630441     2.8860472891     0.6934339125
H      0.1626123944     2.9338882285     0.7089400238
H     -3.5749522151     0.7680930246     0.7626829958
N      1.7604905411     0.8223060920     0.7695030675
O      2.2645071857    -0.2637160269     0.8938369000
O      2.2929160691     1.8939094801     0.6973732707
C     -1.8218575471    -0.4349222490     0.7522815948
H     -2.3389932331    -1.3848561060     0.7940950766
C     -0.3666707102    -0.4894981580     0.6620230884
H      0.0818701399    -1.2193376361     1.3300359316
Br    -0.1121726021    -1.2431538265    -1.1414545324
15
attempt 2 | |g_proj| = 2.378e-03 | E = -3010.3319934929 Ha
C     -1.7937738517     1.9437428160     0.7088301370
C     -0.3692967265     1.9863735088     0.7032832679
C      0.2844635844     0.8240129398     0.6959627925
C     -2.5058305657     0.7554140291     0.7497541636
H     -2.3292686440     2.8848156633     0.7004452170
H      0.1569758005     2.9265077200     0.7144469487
H     -3.5797825109     0.7695172226     0.7750931277
N      1.7664835377     0.8211464163     0.7681456626
O      2.2693288743    -0.2637313035     0.9079815866
O      2.3004581097     1.8912470308     0.6845773427
C     -1.8248452761    -0.4310746399     0.7474903482
H     -2.3479935917    -1.3771403411     0.7851045106
C     -0.3681974000    -0.4857390717     0.6579382690
H      0.0826093309    -1.2110370213     1.3277592142
Br    -0.0948315286    -1.2495782702    -1.1370846520
15
attempt 3 | |g_proj| = 1.542e-03 | E = -3010.3320056676 Ha
C     -1.7929739854     1.9443619156     0.7103296224
C     -0.3681606714     1.9886550952     0.7040476484
C      0.2832861470     0.8243320457     0.6954802056
C     -2.5052428450     0.7551370591     0.7508256961
H     -2.3284249118     2.8857238290     0.7011994259
H      0.1584191751     2.9302649401     0.7140129613
H     -3.5794726143     0.7694434013     0.7759934951
N      1.7647925080     0.8211500176     0.7679488029
O      2.2673770180    -0.2634554711     0.9105425460
O      2.2987273812     1.8909420668     0.6819917000
C     -1.8250709368    -0.4320087551     0.7465184462
H     -2.3472485520    -1.3788136366     0.7837535415
C     -0.3681447887    -0.4875545272     0.6562400664
H      0.0811986259    -1.2118404595     1.3298000310
Br    -0.0925624116    -1.2518608174    -1.1389562477
