15
ortho_th72_ph0 | OPTIMIZED | |g_proj|=1.542e-03 | E=-3010.3320056676 Ha
C     -1.7929739854     1.9443619156     0.7103296224
C     -0.3681606714     1.9886550952     0.7040476484
C      0.2832861470     0.8243320457     0.6954802056
C     -2.5052428450     0.7551370591     0.7508256961
H     -2.3284249118     2.8857238290     0.7011994259
H      0.1584191751     2.9302649401     0.7140129613
H     -3.5794726143     0.7694434013     0.7759934951
N      1.7647925080     0.8211500176     0.7679488029
O      2.2673770180    -0.2634554711     0.9105425460
O      2.2987273812     1.8909420668     0.6819917000
C     -1.8250709368    -0.4320087551     0.7465184462
H     -2.3472485520    -1.3788136366     0.7837535415
C     -0.3681447887    -0.4875545272     0.6562400664
H      0.0811986259    -1.2118404595     1.3298000310
Br    -0.0925624116    -1.2518608174    -1.1389562477
