15
meta_th9_ph54 | OPTIMIZED | |g_proj|=1.702e-03 | E=-3010.3553886837 Ha
C     -0.9210604950     2.0243030095     0.7638932895
C      0.4779082676     1.9603336968     0.7222984305
C      1.1576577003     0.7347318816     0.6566884947
C      0.4941772105    -0.4386624539     0.5863690253
C     -1.6333563370     0.8670341763     0.7050992450
H     -1.4147897390     2.9839899121     0.8294784777
H      1.0746255486     2.8664063447     0.7434454469
H      1.0341290922    -1.3754394277     0.5141117717
H     -2.7169346967     0.8764607163     0.7199155837
N      2.6459978705     0.7418263490     0.6509061792
O      3.1804459918    -0.3339693043     0.6519940420
O      3.1676059597     1.8259511844     0.6459334917
C     -0.9749676719    -0.4459824894     0.6169879701
H     -1.2697920516    -1.0148941753     1.5071341238
Br    -1.6934799304    -1.4704904836    -0.8427979246
