15
para_th45_ph36 | OPTIMIZED | |g_proj|=2.493e-04 | E=-3010.3298337999 Ha
C     -0.5142018540     1.2290568258     0.8388156696
C      0.8434061677     1.2418806706     0.7906983814
C      1.4973474464     0.0158416731     0.7235617639
H     -1.0805406424     2.1509943716     0.8906984343
H      1.4126974535     2.1565748762     0.7986603999
N      2.9854718010     0.0503446062     0.6348355157
O      3.5574624468    -0.9226296968     1.0451094671
O      3.4470901659     1.0423608358     0.1381179198
C     -0.4671713636    -1.2650582936     0.7489435063
H     -1.0004861295    -2.2043483456     0.7344880966
C      0.8868376486    -1.2415531566     0.7464575843
H      1.4917805961    -2.1363357851     0.7637799416
C     -1.2626071490    -0.0260313931     0.6753268377
H     -2.1535322652    -0.0724793751     1.3022795985
Br    -1.8776350796     0.1289026644    -1.1663335080
