15
ortho_th81_ph180 | OPTIMIZED | |g_proj|=1.256e-03 | E=-3010.3273285971 Ha
C     -1.7818360602     1.9459934765     0.7219825619
C     -0.3585373693     1.9846954402     0.7141467859
C      0.2860188707     0.8171886313     0.6999098978
C     -2.4998907768     0.7592251032     0.7390908953
H     -2.3123352862     2.8895299076     0.7298475221
H      0.1715933008     2.9231794908     0.7384165269
H     -3.5731535474     0.7788904948     0.7598984681
N      1.7660770900     0.8173237540     0.7624029518
O      2.2706406767    -0.2484100188     1.0061741475
O      2.2957351050     1.8793178979     0.5938340755
C     -1.8267491055    -0.4298778684     0.7449077497
H     -2.3525548677    -1.3752824859     0.7747979273
C     -0.3688824827    -0.4932229637     0.6444120527
H      0.0852750081    -1.2187871259     1.3175700562
Br    -0.1549014563    -1.2452869843    -1.1576636310
