15
attempt 1 | |g_proj| = 1.412e-03 | E = -3010.3466295688 Ha
C     -1.7896783239     1.9601491600     0.7516694924
C     -0.3713991540     1.9958891713     0.7039255542
C      0.2832323137     0.8275405839     0.6365798806
C     -2.5182495807     0.7743772833     0.7460297780
H     -2.3193415997     2.9031641778     0.8150395759
H      0.1679507447     2.9320815761     0.7376677104
H     -3.5960852683     0.7969621412     0.7889806858
N      1.7688283529     0.8239296246     0.7305921539
O      2.2769607119    -0.2651033443     0.7832652727
O      2.3076218042     1.8964383154     0.7445684882
C     -1.8477089931    -0.4143339454     0.6710541899
H     -2.3804995753    -1.3576339193     0.6622978211
C     -0.3856176512    -0.4794094496     0.6183039893
H     -0.0002348238    -1.1253343637     1.4018137741
Br     0.0507200716    -1.4842401786    -1.0020602940
