15
ortho_th81_ph270 | OPTIMIZED | |g_proj|=6.095e-04 | E=-3010.3224541515 Ha
C     -1.7626784013     1.9450732837     0.5692474005
C     -0.3632564058     1.9777194029     0.5390373249
C      0.3041562400     0.8122663799     0.6618709108
C     -2.5129760618     0.7753116708     0.7421371377
H     -2.2945803675     2.8777441246     0.4616297889
H      0.1690339799     2.9070675010     0.4331451637
H     -3.5916290131     0.8170013718     0.7712413441
N      1.7682060920     0.8055070762     0.7293292905
O      2.3638225300     0.7308312268    -0.3070244659
O      2.1938643911     0.8765812456     1.8528785908
C     -1.8498193610    -0.3938887760     0.8599732058
H     -2.3862387632    -1.3205147886     0.9832858541
C     -0.3801612324    -0.4849802140     0.7737990030
H      0.0367018677    -1.0686861567     1.5923546984
Br    -0.0479464306    -1.4725565569    -0.8731772181
