15
attempt 1 | |g_proj| = 1.037e-04 | E = -3010.3554894723 Ha
C     -0.4814481072     1.2401584564     0.5334520413
C      0.8753566610     1.2534998612     0.6504240361
C      1.5301886744     0.0237470050     0.7164334897
H     -1.0462753748     2.1633789861     0.4858063873
H      1.4491240362     2.1687338192     0.6853557370
N      3.0239295433     0.0497490845     0.8812195968
O      3.5518798559    -1.0145932861     1.0610118794
O      3.5400499804     1.1329097973     0.8163270861
C     -0.4421965100    -1.2545104184     0.5170260976
H     -0.9780385444    -2.1939055928     0.4565222202
C      0.9138137559    -1.2264609098     0.6440602069
H      1.5151002288    -2.1238202691     0.6845419936
C     -1.2293503338    -0.0189969309     0.5453138655
H     -1.6645223560    -0.0416900611     1.5599104636
Br    -2.7916922597    -0.0106790633    -0.5719654832
