15
attempt 1 | |g_proj| = 4.962e-03 | E = -3010.3390795053 Ha
C     -1.7965510971     1.9494486247     0.7449135926
C     -0.3788957128     1.9827443797     0.7065699853
C      0.2748560419     0.8148243820     0.6880448498
C     -2.5198965353     0.7579090525     0.7719047922
H     -2.3303519352     2.8933631930     0.7736133730
H      0.1565555481     2.9160291953     0.7083999572
H     -3.5947945851     0.7871235337     0.8335721899
N      1.7574756268     0.8088732404     0.7554894304
O      2.2531662847    -0.2390898903     1.0845173008
O      2.3009829363     1.8397920784     0.4721659357
C     -1.8457022540    -0.4262684616     0.7033759787
H     -2.3686017803    -1.3730648584     0.7212795156
C     -0.3840437550    -0.4904551919     0.6243493296
H      0.0330764131    -1.2070279967     1.3332500524
Br     0.0892239350    -1.2297245681    -1.1317183332
15
attempt 2 | |g_proj| = 2.327e-03 | E = -3010.3394184268 Ha
C     -1.7984464299     1.9486662912     0.7505855872
C     -0.3789293292     1.9914467141     0.7109378130
C      0.2763398786     0.8238243849     0.6897992957
C     -2.5164494746     0.7547630368     0.7859974007
H     -2.3369984274     2.8894695403     0.7760503374
H      0.1502547246     2.9305422420     0.7116933299
H     -3.5920043982     0.7767325577     0.8401759301
N      1.7564734138     0.8026266590     0.7616330791
O      2.2364298675    -0.2329492865     1.1479298231
O      2.3134410823     1.8077158524     0.4187418643
C     -1.8374899407    -0.4262190925     0.7051837365
H     -2.3572026403    -1.3737791751     0.6805221675
C     -0.3783243124    -0.4824195786     0.6215232353
H      0.0471792639    -1.1948774202     1.3274049921
Br     0.0622258491    -1.2310660083    -1.1384506372
15
attempt 3 | |g_proj| = 1.237e-03 | E = -3010.3394250858 Ha
C     -1.7981687419     1.9487188968     0.7517939068
C     -0.3787119255     1.9917166294     0.7106002928
C      0.2756578209     0.8235079547     0.6901308679
C     -2.5158853555     0.7543355420     0.7855627242
H     -2.3369348203     2.8897455270     0.7758658189
H      0.1502622408     2.9311951664     0.7117383948
H     -3.5914670824     0.7766533387     0.8402451141
N      1.7556857894     0.8022558460     0.7606381426
O      2.2364648574    -0.2320573045     1.1486528965
O      2.3133124130     1.8070607258     0.4185897483
C     -1.8371967910    -0.4266094756     0.7045126588
H     -2.3574888741    -1.3736019102     0.6813062283
C     -0.3785143814    -0.4828104634     0.6209388035
H      0.0465481691    -1.1951802453     1.3266963085
Br     0.0629358047    -1.2304535060    -1.1375439465
