15
ortho_th90_ph108 | OPTIMIZED | |g_proj|=5.647e-04 | E=-3010.3197201365 Ha
C     -1.7655845895     1.9164928332     0.8730242318
C     -0.3665987961     1.9649212029     0.8419347703
C      0.3025925177     0.8072595038     0.6815749938
C     -2.5097357938     0.7385887059     0.7656128366
H     -2.2992229749     2.8449218649     0.9968691554
H      0.1651051161     2.8958816671     0.9584690027
H     -3.5882554744     0.7616067215     0.8035980179
N      1.7678840667     0.8179826987     0.7488729885
O      2.1938769444     0.7267181457     1.8706267990
O      2.3618622764     0.9373677252    -0.2846504744
C     -1.8466369354    -0.4287517432     0.6087057992
H     -2.3809218045    -1.3627492391     0.5171485007
C     -0.3761179835    -0.4880841240     0.5099222550
H      0.0359854733    -1.2228709927     1.1981788335
Br    -0.0477329272    -1.1248082391    -1.3001597420
