15
attempt 1 | |g_proj| = 6.317e-03 | E = -3010.3496488007 Ha
C     -0.4721792491     1.2461224494     0.5744900669
C      0.8806911122     1.2572832987     0.6928602157
C      1.5254479455     0.0169601504     0.7388381011
H     -1.0373323671     2.1710367543     0.5544683220
H      1.4530891212     2.1748798478     0.7130329236
N      3.0168189203     0.0375385715     0.8443852538
O      3.5285108804    -0.9594169851     1.2788620626
O      3.5423734478     1.0624526681     0.5014186943
C     -0.4472061991    -1.2585078147     0.5097172723
H     -0.9792451044    -2.2022308722     0.4315180026
C      0.9049174138    -1.2321903862     0.6655518406
H      1.5015141746    -2.1314919560     0.6908174634
C     -1.2248105032    -0.0149222647     0.5667117362
H     -1.7058055521    -0.0630649565     1.5547817348
Br    -2.7208647684     0.0430719728    -0.6520140437
15
attempt 2 | |g_proj| = 2.170e-03 | E = -3010.3497653904 Ha
C     -0.4731709309     1.2382926109     0.5737232590
C      0.8793641880     1.2521060289     0.6902398135
C      1.5284426630     0.0187399756     0.7361867557
H     -1.0333741139     2.1617644349     0.5484311917
H      1.4559091592     2.1651811053     0.7150179794
N      3.0186536966     0.0419674951     0.8469397830
O      3.5246115276    -0.9603639339     1.2742403203
O      3.5501950915     1.0653146632     0.5091186620
C     -0.4453508244    -1.2530273752     0.5124723907
H     -0.9817557339    -2.1898234007     0.4295296289
C      0.9075930574    -1.2278435831     0.6614645355
H      1.5033965413    -2.1266667993     0.6945517681
C     -1.2291008160    -0.0166581281     0.5656248570
H     -1.7072378870    -0.0637749895     1.5541113927
Br    -2.7322563423     0.0423123736    -0.6462126868
15
attempt 3 | |g_proj| = 1.784e-03 | E = -3010.3497698353 Ha
C     -0.4730142671     1.2395290598     0.5724595939
C      0.8800245238     1.2523638039     0.6900961845
C      1.5284189571     0.0183236369     0.7355359622
H     -1.0343915136     2.1631111264     0.5470432734
H      1.4562034567     2.1659409630     0.7150244232
N      3.0192714845     0.0415685397     0.8466651940
O      3.5256573610    -0.9607433616     1.2736276413
O      3.5507073628     1.0657381041     0.5121352117
C     -0.4458049964    -1.2535789345     0.5110051658
H     -0.9823810686    -2.1910418486     0.4294464026
C      0.9074483883    -1.2282816954     0.6619128946
H      1.5039282257    -2.1268863144     0.6947179960
C     -1.2292304746    -0.0162264312     0.5658712716
H     -1.7068657267    -0.0639987173     1.5535927816
Br    -2.7340524329     0.0417025469    -0.6436943411
