15
meta_th90_ph0 | OPTIMIZED | |g_proj|=3.226e-04 | E=-3010.3292283342 Ha
C     -0.9295270070     2.0198903157     0.7629717935
C      0.4694246119     1.9562245456     0.6986230240
C      1.1425220835     0.7305282039     0.6781876430
C      0.4864021998    -0.4468862659     0.7169696623
C     -1.6242570834     0.8597019542     0.7776536408
H     -1.4178352170     2.9810248086     0.7875615144
H      1.0560314157     2.8657619095     0.6599801860
H      1.0229960218    -1.3858100671     0.7060046267
H     -2.6998676207     0.8665118224     0.8112857675
N      2.6221260229     0.7272858493     0.6011113925
O      3.1385896126    -0.3559001593     0.6015225685
O      3.1409767392     1.8088321512     0.5384819426
C     -0.9768872698    -0.4570643702     0.7131693452
H     -1.3777806153    -1.1534458832     1.4499686544
Br    -1.4447471815    -1.2150559011    -1.0320341365
