15
attempt 1 | |g_proj| = 1.001e-04 | E = -3010.3406752300 Ha
C     -0.9133510740     1.9963547895     0.7802773827
C      0.4762530901     1.9363822029     0.6701783007
C      1.1582577879     0.7059781116     0.6679261608
C      0.4965485289    -0.4656110747     0.6838505157
C     -1.6198073676     0.8353992151     0.8299261125
H     -1.4053906253     2.9528249785     0.8273247376
H      1.0667158665     2.8431583965     0.5948337527
H      1.0328575354    -1.4034707363     0.6817005204
H     -2.6985848441     0.8400571712     0.9106314850
N      2.6371405848     0.7388114910     0.6429918216
O      3.1921076302    -0.2210847187     1.1027550643
O      3.1333258424     1.7338977588     0.1800809126
C     -0.9740221382    -0.4743542921     0.6668501108
H     -1.3717219478    -1.2323245414     1.3428710607
Br    -1.6021621430    -0.9844197876    -1.1107402636
