15
attempt 1 | |g_proj| = 2.264e-03 | E = -3010.3189361748 Ha
C     -1.7538337216     1.9536114889     0.6248849134
C     -0.3455036002     1.9782121059     0.6057519053
C      0.2943450960     0.8005530222     0.6372231906
C     -2.5023232745     0.7820389732     0.7138974511
H     -2.2714204393     2.9005646916     0.5804054259
H      0.1950209230     2.9145908090     0.5755796173
H     -3.5777634552     0.8188075091     0.7249860877
N      1.7624168142     0.8286648729     0.6998063221
O      2.3458574613     0.5174475696    -0.3011294833
O      2.1974945532     1.2109461771     1.7542191639
C     -1.8573946295    -0.4117376882     0.7870852155
H     -2.4036213863    -1.3433161888     0.8789704718
C     -0.3909610383    -0.5001664897     0.7328273512
H     -0.0236594013    -1.0497299790     1.5991113092
Br    -0.0221548499    -1.6160100689    -0.8238908990
15
attempt 2 | |g_proj| = 1.276e-03 | E = -3010.3189394395 Ha
C     -1.7534754809     1.9534901624     0.6251616866
C     -0.3456909311     1.9781819157     0.6051940824
C      0.2941175326     0.8009976902     0.6372572824
C     -2.5023690630     0.7822661847     0.7141236919
H     -2.2707743901     2.8996797898     0.5808991837
H      0.1953503460     2.9136872425     0.5751345148
H     -3.5778884924     0.8188631164     0.7259271522
N      1.7622961990     0.8296188712     0.6998328731
O      2.3463287091     0.5171893128    -0.3003512317
O      2.1968388101     1.2114665242     1.7542812597
C     -1.8579685694    -0.4115009423     0.7867224042
H     -2.4036571315    -1.3427436221     0.8786228435
C     -0.3910932227    -0.5010605301     0.7313154086
H     -0.0234637280    -1.0495416807     1.5984845706
Br    -0.0220515400    -1.6161172252    -0.8228776745
