15
attempt 1 | |g_proj| = 3.526e-05 | E = -3010.3230413202 Ha
C     -0.9269429174     1.9838277745     0.8495792153
C      0.4528277706     1.9140888832     0.6681751309
C      1.1455468064     0.6979686913     0.7074687399
C      0.4934213325    -0.4744159994     0.7848556632
C     -1.6379658981     0.8265165950     0.9002084426
H     -1.4244346970     2.9376133017     0.9091857635
H      1.0291172749     2.8152943749     0.5154048891
H      1.0335805964    -1.4112227957     0.8053612227
H     -2.7185003476     0.8368952439     0.9761521887
N      2.6180787610     0.7156234890     0.6058302615
O      3.2155781034    -0.0645259561     1.2970673891
O      3.0633109747     1.5032243192    -0.1871252930
C     -0.9779070314    -0.4729661417     0.6795716605
H     -1.4496739603    -1.2965869755     1.2049151418
Br    -1.3078700504    -0.7097358719    -1.2451927730
