15
meta_th81_ph108 | OPTIMIZED | |g_proj|=1.614e-04 | E=-3010.3248617314 Ha
C     -0.8964020164     1.9802076549     0.8741469502
C      0.4837440006     1.9142387694     0.7300370097
C      1.1628624739     0.6805399017     0.6724834736
C      0.4877783673    -0.4750688597     0.6482262777
C     -1.6220753477     0.8267122428     0.8566646224
H     -1.3829784041     2.9320962125     0.9738555868
H      1.0720288266     2.8220091873     0.6801343172
H      1.0012909205    -1.4202887870     0.5975556667
H     -2.7015059004     0.8394518990     0.9410153325
N      2.6331405233     0.7353003428     0.6261331346
O      3.2105921238     0.3331155003     1.5998175097
O      3.0996086592     1.2174746693    -0.3741330828
C     -0.9831753947    -0.4717590589     0.6283740954
H     -1.4137829660    -1.2629722940     1.2374314933
Br    -1.5429591463    -0.8494584392    -1.2202847349
