15
attempt 1 | |g_proj| = 1.100e-02 | E = -3010.3301162374 Ha
C     -0.9045216175     2.0217083280     0.6835153278
C      0.4872860794     1.9457883489     0.7756208487
C      1.1617142156     0.7341604372     0.6400666058
C      0.4842137884    -0.4188919222     0.4671949258
C     -1.6414696553     0.8867560185     0.5297278617
H     -1.3929744254     2.9777146534     0.7358678879
H      1.0881052377     2.8281299505     0.9476561271
H      1.0196102516    -1.3489056000     0.3643920479
H     -2.7277729151     0.9102559636     0.4778849415
N      2.6450192721     0.7312558341     0.6670004592
O      3.1888798927    -0.1622741283     0.0792777772
O      3.1663901791     1.6256291598     1.2751626303
C     -0.9814257277    -0.4255069196     0.5803506495
H     -1.1293517078    -0.6903695520     1.6453284661
Br    -1.8555361306    -1.8138515658    -0.3975888420
15
attempt 2 | |g_proj| = 8.384e-03 | E = -3010.3306254619 Ha
C     -0.9050921226     2.0340505490     0.6802446194
C      0.4807832785     1.9414879123     0.7815859970
C      1.1519144178     0.7238774615     0.6307378440
C      0.4928237047    -0.4368493553     0.4438194623
C     -1.6242195526     0.8908483375     0.5171345803
H     -1.4004375111     2.9914708488     0.7211541994
H      1.0653533374     2.8304090285     0.9656605284
H      1.0270271421    -1.3726696187     0.3297598154
H     -2.7053188297     0.9156400601     0.4613000607
N      2.6265754286     0.7219178750     0.6701795576
O      3.1818724884    -0.1326476629     0.0356285054
O      3.1264910839     1.5836004544     1.3414946584
C     -0.9669219007    -0.4232494936     0.5742937514
H     -1.0805849619    -0.6342275913     1.6576773287
Br    -1.8620992645    -1.8320597945    -0.3392131894
15
attempt 3 | |g_proj| = 4.228e-03 | E = -3010.3307485478 Ha
C     -0.9088842471     2.0288117941     0.6755505997
C      0.4796361466     1.9422887883     0.7834935994
C      1.1559952628     0.7297697924     0.6317219892
C      0.4903806655    -0.4294539726     0.4474065861
C     -1.6304842593     0.8871082141     0.5110133083
H     -1.3975143671     2.9890386530     0.7206718937
H      1.0741256103     2.8260770229     0.9676735802
H      1.0232256332    -1.3636614651     0.3245599255
H     -2.7112945671     0.9129989839     0.4598921834
N      2.6360346051     0.7285701240     0.6635674703
O      3.1861850708    -0.1318435972     0.0320403785
O      3.1311802818     1.5779983931     1.3551494900
C     -0.9717818817    -0.4245001064     0.5719870994
H     -1.0779695760    -0.6327653124     1.6558142433
Br    -1.8706676383    -1.8388382967    -0.3290846235
