15
attempt 1 | |g_proj| = 9.851e-03 | E = -3010.3311158850 Ha
C     -0.9129011898     2.0312062962     0.7023472554
C      0.4789302187     1.9419729459     0.7700662524
C      1.1550771213     0.7298638566     0.6354566756
C      0.4926008770    -0.4415697326     0.5002250273
C     -1.6279435874     0.8880862260     0.5495625045
H     -1.4019982282     2.9932210465     0.7554428258
H      1.0747224445     2.8276096506     0.9241040641
H      1.0263162580    -1.3829988800     0.4171311971
H     -2.7082333181     0.9286875421     0.5141178782
N      2.6444853125     0.7383884003     0.6441690151
O      3.1795763637    -0.2171464552     0.1509958714
O      3.1581170852     1.6848607102     1.1769692093
C     -0.9789791778    -0.4364342523     0.5945287104
H     -1.1570547214    -0.7211841188     1.6516600874
Br    -1.8145487259    -1.7629642478    -0.5153188778
15
attempt 2 | |g_proj| = 3.267e-03 | E = -3010.3313528909 Ha
C     -0.9118482210     2.0331640164     0.7014309446
C      0.4814426805     1.9436464814     0.7765093693
C      1.1546162501     0.7269381702     0.6432911908
C      0.4911037700    -0.4396828747     0.5008948179
C     -1.6253071339     0.8903755591     0.5495787000
H     -1.4005156434     2.9948927316     0.7526656874
H      1.0755603461     2.8342401495     0.9266256010
H      1.0233106951    -1.3795455062     0.4114828759
H     -2.7044991420     0.9192269593     0.5071763356
N      2.6389244552     0.7304092618     0.6443719941
O      3.1774430500    -0.2205546041     0.1465556918
O      3.1427741468     1.6829078708     1.1752853586
C     -0.9736788586    -0.4267916476     0.5917146716
H     -1.1511727270    -0.7295749316     1.6380903622
Br    -1.8099869342    -1.7580526436    -0.4942159000
15
attempt 3 | |g_proj| = 2.930e-03 | E = -3010.3313651313 Ha
C     -0.9104261219     2.0352495004     0.7026253532
C      0.4814925454     1.9449456356     0.7782261443
C      1.1536014623     0.7287137955     0.6448390524
C      0.4920005880    -0.4388524338     0.5000693837
C     -1.6239954957     0.8918509866     0.5488909654
H     -1.3997228746     2.9967487661     0.7510924492
H      1.0751969492     2.8339897350     0.9281705771
H      1.0226785502    -1.3797425250     0.4085472124
H     -2.7037248917     0.9172815131     0.5041367060
N      2.6371453679     0.7306847549     0.6443962745
O      3.1748413335    -0.2206038041     0.1462743169
O      3.1431734439     1.6818634650     1.1756932979
C     -0.9732099734    -0.4274413691     0.5911434564
H     -1.1485440510    -0.7308858896     1.6390049216
Br    -1.8123400973    -1.7622031337    -0.4916524056
15
attempt 4 | |g_proj| = 2.260e-03 | E = -3010.3313671573 Ha
C     -0.9111590549     2.0351690133     0.7026363655
C      0.4814308098     1.9450134713     0.7787934782
C      1.1536653778     0.7283131364     0.6450626348
C      0.4915212057    -0.4389994363     0.4997365885
C     -1.6238964642     0.8914514821     0.5487948479
H     -1.3994833776     2.9973484554     0.7507168213
H      1.0756490545     2.8346865776     0.9288117832
H      1.0226819398    -1.3794030059     0.4076714436
H     -2.7031465352     0.9170994704     0.5032244272
N      2.6371586222     0.7308604914     0.6446520432
O      3.1740284054    -0.2207887034     0.1459922310
O      3.1431938482     1.6817551385     1.1758725759
C     -0.9731623331    -0.4272724841     0.5911736910
H     -1.1476981831    -0.7308851276     1.6386855895
Br    -1.8126165793    -1.7627494775    -0.4903668107
15
attempt 5 | |g_proj| = 2.260e-03 | E = -3010.3313671453 Ha
C     -0.9111590553     2.0351690143     0.7026363658
C      0.4814308100     1.9450134722     0.7787934786
C      1.1536653783     0.7283131367     0.6450626351
C      0.4915212059    -0.4389994365     0.4997365887
C     -1.6238964650     0.8914514825     0.5487948482
H     -1.3994833783     2.9973484568     0.7507168217
H      1.0756490550     2.8346865789     0.9288117836
H      1.0226819403    -1.3794030066     0.4076714438
H     -2.7031465365     0.9170994708     0.5032244274
N      2.6371586234     0.7308604917     0.6446520435
O      3.1740284069    -0.2207887035     0.1459922311
O      3.1431938497     1.6817551393     1.1758725765
C     -0.9731623336    -0.4272724843     0.5911736913
H     -1.1476981836    -0.7308851279     1.6386855903
Br    -1.8126165802    -1.7627494783    -0.4903668109
15
attempt 6 | |g_proj| = 2.260e-03 | E = -3010.3313671399 Ha
C     -0.9111590557     2.0351690153     0.7026363661
C      0.4814308102     1.9450134731     0.7787934790
C      1.1536653788     0.7283131370     0.6450626354
C      0.4915212061    -0.4389994367     0.4997365889
C     -1.6238964658     0.8914514829     0.5487948485
H     -1.3994833790     2.9973484582     0.7507168221
H      1.0756490555     2.8346865802     0.9288117840
H      1.0226819408    -1.3794030073     0.4076714440
H     -2.7031465378     0.9170994712     0.5032244276
N      2.6371586246     0.7308604920     0.6446520438
O      3.1740284084    -0.2207887036     0.1459922312
O      3.1431938512     1.6817551401     1.1758725771
C     -0.9731623341    -0.4272724845     0.5911736916
H     -1.1476981841    -0.7308851282     1.6386855911
Br    -1.8126165811    -1.7627494791    -0.4903668111
15
attempt 1 | |g_proj| = 9.866e-03 | E = -3010.3311154174 Ha
C     -0.9129121660     2.0312129743     0.7023759097
C      0.4789310907     1.9419555224     0.7700493283
C      1.1550994223     0.7298543568     0.6354543647
C      0.4926037064    -0.4415781341     0.5002881855
C     -1.6279539118     0.8880896290     0.5496183231
H     -1.4020169020     2.9932419727     0.7554485759
H      1.0747222959     2.8275974844     0.9240459863
H      1.0263320480    -1.3829990842     0.4172007513
H     -2.7082427297     0.9287017863     0.5141894767
N      2.6445215433     0.7384010426     0.6441559168
O      3.1795739702    -0.2172422006     0.1511348004
O      3.1581418847     1.6849788458     1.1767956759
C     -0.9789977872    -0.4364507370     0.5945574885
H     -1.1571180510    -0.7212836130     1.6516691784
Br    -1.8145176814    -1.7628808579    -0.5155262651
15
attempt 2 | |g_proj| = 3.266e-03 | E = -3010.3313532488 Ha
C     -0.9118492724     2.0331625478     0.7014491556
C      0.4814392268     1.9436508458     0.7764967876
C      1.1546082107     0.7269372810     0.6433075628
C      0.4911032836    -0.4396881256     0.5009367933
C     -1.6253104198     0.8903737100     0.5496277659
H     -1.4005130283     2.9948880572     0.7526747614
H      1.0755668147     2.8342420528     0.9265696382
H      1.0233154151    -1.3795524838     0.4115528953
H     -2.7045051312     0.9192291846     0.5072425066
N      2.6389206846     0.7304082004     0.6443603870
O      3.1774592638    -0.2206220423     0.1466986885
O      3.1427864540     1.6829900282     1.1750997141
C     -0.9736806179    -0.4267953602     0.5917428833
H     -1.1512377973    -0.7296849719     1.6380683820
Br    -1.8099363527    -1.7579399319    -0.4943702207
