15
attempt 1 | |g_proj| = 6.345e-03 | E = -3010.3273986001 Ha
C     -0.4668742779     1.2484085310     0.5742547820
C      0.8780730834     1.2436468258     0.7530197938
C      1.5166466460     0.0081076530     0.7740094742
H     -1.0061680424     2.1846137886     0.5117718348
H      1.4584128545     2.1522488900     0.7834482640
N      3.0118988964     0.0355689648     0.7918177685
O      3.5540428867    -1.0136760580     1.0065443744
O      3.5007256217     1.1139092883     0.5885258255
C     -0.4552562618    -1.2520559920     0.5599131010
H     -0.9977315946    -2.1874273103     0.4943624721
C      0.8922523941    -1.2346837549     0.7381214126
H      1.4738664153    -2.1416091956     0.7593526701
C     -1.2289992576    -0.0049941127     0.5484872327
H     -1.7206927386     0.0016165448     1.5335197968
Br    -2.6442773275    -0.0061535842    -0.7517091253
15
attempt 2 | |g_proj| = 2.659e-03 | E = -3010.3275350387 Ha
C     -0.4716475771     1.2540215970     0.5679208113
C      0.8763667902     1.2511744060     0.7311934500
C      1.5168899544     0.0148787434     0.7659945494
H     -1.0206807798     2.1848032856     0.4963705057
H      1.4523351692     2.1621995638     0.7716156559
N      3.0135000640     0.0273656034     0.8021325895
O      3.5414456417    -1.0304822054     1.0123760776
O      3.5197669080     1.0992754894     0.6145497718
C     -0.4507347330    -1.2459764031     0.5551889418
H     -0.9889818604    -2.1814711043     0.4800589270
C      0.8973569440    -1.2295934891     0.7203358495
H      1.4839485905    -2.1343006564     0.7605807643
C     -1.2304524689    -0.0023870005     0.5648819918
H     -1.7222359453    -0.0135856708     1.5504609514
Br    -2.6509573963    -0.0084016802    -0.7282211553
15
attempt 3 | |g_proj| = 1.870e-03 | E = -3010.3275825974 Ha
C     -0.4696279656     1.2511440160     0.5644301178
C      0.8778046721     1.2510674309     0.7302693382
C      1.5155409121     0.0153890680     0.7702730785
H     -1.0159505812     2.1826001350     0.5006691278
H      1.4532152902     2.1631693245     0.7543359183
N      3.0118548334     0.0288926620     0.8085482785
O      3.5391304378    -1.0299486711     1.0134779339
O      3.5196848678     1.1018689485     0.6306227104
C     -0.4538095570    -1.2484077972     0.5543355510
H     -0.9891460960    -2.1864565960     0.4802322831
C      0.8940724348    -1.2284634380     0.7209490724
H      1.4830800877    -2.1312785618     0.7494198397
C     -1.2301201752    -0.0035592072     0.5575083915
H     -1.7065541421    -0.0095897815     1.5501387315
Br    -2.6632557139    -0.0089070531    -0.7197706862
