15
para_th27_ph306 | OPTIMIZED | |g_proj|=1.946e-03 | E=-3010.3447671991 Ha
C     -0.4666963520     1.2481251677     0.4741792917
C      0.8871724409     1.2575432696     0.5985743931
C      1.5314259826     0.0230092683     0.7101570732
H     -1.0216130373     2.1706147722     0.3721243936
H      1.4668901454     2.1692197240     0.6180459549
N      3.0171302493     0.0313443964     0.8897482758
O      3.5817797820    -0.9888641096     0.6002468594
O      3.4891197039     1.0584021434     1.2971451441
C     -0.4532462353    -1.2409406677     0.5827565938
H     -0.9968378643    -2.1774526154     0.5636869855
C      0.9040079598    -1.2203117248     0.6769890788
H      1.4977844927    -2.1203307368     0.7247669429
C     -1.2305581685    -0.0010513266     0.5505099482
H     -1.6583063697     0.0630981590     1.5710895920
Br    -2.7821334091    -0.1248852409    -0.5645808216
