15
ortho_th81_ph216 | OPTIMIZED | |g_proj|=3.352e-04 | E=-3010.3265367305 Ha
C     -1.7832783889     1.9480454186     0.6181874542
C     -0.3580806147     1.9765935390     0.6344097517
C      0.3056303833     0.8158913473     0.6803478073
C     -2.4964433669     0.7673528347     0.7126461916
H     -2.3182804012     2.8895535053     0.5572085914
H      0.1650247470     2.9160306208     0.6514659583
H     -3.5716633052     0.7893701410     0.7318566343
N      1.7780014817     0.8288195066     0.7767412146
O      2.3614093886    -0.0672802632     0.2237481007
O      2.2317844916     1.7268027729     1.4285225368
C     -1.8078285108    -0.4101828081     0.8181900475
H     -2.3282551666    -1.3439153035     0.9496780135
C     -0.3530306000    -0.4926828182     0.7000442475
H      0.1196523044    -1.2030844901     1.3764284785
Br    -0.2981433589    -1.3568372355    -1.0697470219
