15
para_th45_ph108 | OPTIMIZED | |g_proj|=1.806e-03 | E=-3010.3454829729 Ha
C     -0.4788123481     1.2248949119     0.7016148305
C      0.8748551075     1.2471225274     0.7235056984
C      1.5339139777     0.0147319138     0.7168534663
H     -1.0456005098     2.1427732065     0.7387084186
H      1.4467907186     2.1617802806     0.7393840661
N      3.0132289891     0.0438549497     0.7813585182
O      3.5143341991    -0.7842534992     1.4930711865
O      3.5424502972     0.9016253139     0.1279370426
C     -0.4449870158    -1.2583388870     0.5612568882
H     -0.9813066485    -2.1943998990     0.4862308969
C      0.9092300891    -1.2351520030     0.6536861344
H      1.5074830817    -2.1315670571     0.6644068645
C     -1.2380547660    -0.0267954438     0.6327904529
H     -1.9018092272    -0.1140091864     1.4990810358
Br    -2.4857966871     0.1552533495    -0.8544458729
