15
attempt 1 | |g_proj| = 1.396e-03 | E = -3010.3194345153 Ha
C     -0.4808298314     1.2148074408     1.0162389180
C      0.8685664806     1.2199197695     1.0101238868
C      1.4969627692     0.0015470348     0.7323408429
H     -1.0276030171     2.1258464991     1.1981377432
H      1.4566851537     2.1053204029     1.2008723814
N      2.9694587319     0.0182185138     0.6062397501
O      3.5607246560     0.6562794191     1.4335048425
O      3.3943003167    -0.5942649910    -0.3353959241
C     -0.4916628425    -1.2456451973     0.5923119351
H     -1.0405283142    -2.1685599095     0.4477683228
C      0.8656366036    -1.2213475782     0.5522201216
H      1.4445896924    -2.1079690184     0.3648159467
C     -1.2558449387     0.0024784791     0.7018546261
H     -2.1545514185    -0.0976164158     1.3042365115
Br    -1.8399847217     0.2385060303    -1.1598302001
