15
attempt 1 | |g_proj| = 4.560e-03 | E = -3010.3405845890 Ha
C     -0.9336762189     2.0193411218     0.7685219132
C      0.4625179295     1.9508097614     0.6670684701
C      1.1447646848     0.7249860091     0.6670483320
C      0.4872949496    -0.4493583886     0.7162353151
C     -1.6393691476     0.8601571712     0.7992116674
H     -1.4250186116     2.9813418186     0.8156909061
H      1.0526485615     2.8578293028     0.6086544739
H      1.0313176773    -1.3864886805     0.6920350831
H     -2.7204651399     0.8746125055     0.8479202120
N      2.6309232475     0.7215444606     0.6200399967
O      3.1656659794    -0.3542127805     0.6372290768
O      3.1465624139     1.8044311331     0.5470577741
C     -0.9835222233    -0.4570943774     0.6834923501
H     -1.3805049756    -1.1393117487     1.4387165386
Br    -1.4309724127    -1.2069883901    -1.0374644795
15
attempt 2 | |g_proj| = 3.834e-03 | E = -3010.3407227744 Ha
C     -0.9297779821     2.0169647943     0.7756796526
C      0.4652296619     1.9523993694     0.6697217953
C      1.1448510843     0.7279361261     0.6676489870
C      0.4872308027    -0.4491957740     0.7178696770
C     -1.6351617905     0.8568881290     0.8106466177
H     -1.4192544644     2.9791659816     0.8114771103
H      1.0578754341     2.8574871332     0.5964306667
H      1.0213802229    -1.3914471479     0.7003437926
H     -2.7152183090     0.8628865886     0.8592118669
N      2.6296266057     0.7307621323     0.6196732781
O      3.1559476780    -0.3473729868     0.6776177820
O      3.1521165924     1.8075306741     0.5056233079
C     -0.9835666721    -0.4601205885     0.6902695454
H     -1.3963230034    -1.1652009825     1.4170215669
Br    -1.4267891451    -1.1770845259    -1.0477780121
15
attempt 3 | |g_proj| = 1.826e-03 | E = -3010.3407536450 Ha
C     -0.9313682120     2.0176268610     0.7748964256
C      0.4638847858     1.9502666358     0.6665320260
C      1.1448031809     0.7251241707     0.6696520156
C      0.4871467168    -0.4504414786     0.7192998232
C     -1.6371960783     0.8582846765     0.8101093558
H     -1.4224261746     2.9794260066     0.8138535600
H      1.0549466081     2.8564850631     0.5956051951
H      1.0262029349    -1.3900757871     0.7016602684
H     -2.7174198056     0.8661036863     0.8629005297
N      2.6299773136     0.7262124370     0.6204707277
O      3.1622806061    -0.3487915985     0.6821779692
O      3.1467958685     1.8046832959     0.5001574174
C     -0.9833696475    -0.4579557609     0.6901498037
H     -1.3925924733    -1.1634995728     1.4171912280
Br    -1.4234989069    -1.1718497074    -1.0531987065
