15
attempt 1 | |g_proj| = 3.230e-03 | E = -3010.3324403999 Ha
C     -1.7723836713     1.9565657559     0.7064750913
C     -0.3576201624     1.9860941057     0.6613891317
C      0.2940990108     0.8173346688     0.6259898217
C     -2.5099993484     0.7820000049     0.7396032527
H     -2.2920232027     2.9020350869     0.7440865407
H      0.1811360186     2.9231980797     0.6851515424
H     -3.5864706440     0.8077893670     0.7923517029
N      1.7757626898     0.8431626547     0.7394048886
O      2.3427592951    -0.1501223607     0.3735663770
O      2.2540105413     1.8551935386     1.1748777793
C     -1.8485091256    -0.4114300172     0.6934898906
H     -2.3915084512    -1.3482340965     0.7068005735
C     -0.3846077107    -0.4914269434     0.6395388054
H     -0.0179314465    -1.1075272306     1.4556357490
Br    -0.0402147579    -1.5801557901    -0.9486330866
