15
attempt 1 | |g_proj| = 4.891e-03 | E = -3010.3541935047 Ha
C     -0.4743747695     1.2432942732     0.5503418397
C      0.8800936660     1.2547284049     0.6750698765
C      1.5290340898     0.0196124545     0.7306959253
H     -1.0393501172     2.1668704441     0.5219266493
H      1.4537652725     2.1705389264     0.7024064007
N      3.0224081153     0.0425548387     0.8599825750
O      3.5341788116    -0.9848687260     1.2162575970
O      3.5500800095     1.0946433705     0.6177418088
C     -0.4449636991    -1.2555709525     0.5025056277
H     -0.9805931312    -2.1965651903     0.4331523736
C      0.9087073473    -1.2289827391     0.6564992210
H      1.5078960543    -2.1270450164     0.6911788376
C     -1.2265343803    -0.0157688243     0.5564815951
H     -1.6853790534    -0.0570954049     1.5560376879
Br    -2.7690489468     0.0211746189    -0.6048383743
15
attempt 2 | |g_proj| = 2.156e-03 | E = -3010.3542404481 Ha
C     -0.4762816829     1.2392934284     0.5500979495
C      0.8780283192     1.2521683153     0.6723586016
C      1.5298524544     0.0209024190     0.7299767717
H     -1.0372254960     2.1632605664     0.5158066399
H      1.4547441901     2.1651503184     0.7023102010
N      3.0223593559     0.0450617306     0.8657326277
O      3.5327717763    -0.9872437029     1.2088125471
O      3.5527911742     1.0963645481     0.6266641980
C     -0.4436796105    -1.2528058686     0.5073372968
H     -0.9807890604    -2.1898657009     0.4309274151
C      0.9105366952    -1.2266988562     0.6534624559
H      1.5080545752    -2.1252747268     0.6924737431
C     -1.2284816013    -0.0171434192     0.5530764188
H     -1.6801372990    -0.0559628420     1.5549313567
Br    -2.7766245178     0.0203142681    -0.5985285775
15
attempt 3 | |g_proj| = 1.599e-03 | E = -3010.3542493076 Ha
C     -0.4755137164     1.2409292106     0.5473692426
C      0.8790268876     1.2527388070     0.6725222812
C      1.5297580616     0.0201588029     0.7299691102
H     -1.0384265769     2.1648157599     0.5134267369
H      1.4548738994     2.1668570028     0.7018941932
N      3.0227644423     0.0442492382     0.8651161648
O      3.5338121203    -0.9880723186     1.2069242631
O      3.5525202303     1.0973354364     0.6321650399
C     -0.4442956704    -1.2535039329     0.5041685584
H     -0.9811388180    -2.1917572182     0.4309635518
C      0.9097536729    -1.2276348961     0.6546863354
H      1.5085212815    -2.1256848115     0.6924627322
C     -1.2283664292    -0.0164437814     0.5526023298
H     -1.6785119111    -0.0556723645     1.5559256423
Br    -2.7788581976     0.0192055431    -0.5947565318
