15
meta_th54_ph324 | OPTIMIZED | |g_proj|=5.058e-04 | E=-3010.3429592355 Ha
C     -0.9068036162     2.0382850699     0.7103144047
C      0.4921167663     1.9718402038     0.7258870213
C      1.1565354442     0.7394100424     0.6422600743
C      0.4808724768    -0.4224455338     0.5513874500
C     -1.6251118993     0.8865928401     0.6292151204
H     -1.3905734697     2.9995206544     0.7581176039
H      1.0897964095     2.8743099852     0.8058026563
H      1.0095982407    -1.3602233130     0.4646559255
H     -2.7053905548     0.9028578054     0.6237432709
N      2.6365467760     0.7242962577     0.6639691999
O      3.1500219919    -0.2781915630     0.2505589983
O      3.1688530071     1.7179399108     1.0856584103
C     -0.9805794789    -0.4306919749     0.6208425446
H     -1.2482776098    -0.8775537653     1.5919860890
Br    -1.7194377372    -1.6843475778    -0.6529410185
