15
attempt 1 | |g_proj| = 5.802e-03 | E = -3010.3450518896 Ha
C     -0.4690393990     1.2301945108     0.6661488227
C      0.8831480632     1.2510535629     0.7192241518
C      1.5270185499     0.0131866927     0.7280426582
H     -1.0246433880     2.1545788874     0.6845318147
H      1.4665883844     2.1614577713     0.7376921756
N      3.0079803892     0.0482113725     0.7940918736
O      3.5213131259    -0.8552913711     1.3962491885
O      3.5257384523     0.9845803985     0.2464334010
C     -0.4511825449    -1.2606711792     0.5532908773
H     -0.9921390187    -2.1943371185     0.4590369216
C      0.9024181600    -1.2354507912     0.6698349216
H      1.4964146526    -2.1336955217     0.6949808859
C     -1.2325913147    -0.0223292992     0.6083832337
H     -1.8401214418    -0.0909859468     1.5167971215
Br    -2.5549834092     0.0970185095    -0.8092984162
15
attempt 2 | |g_proj| = 2.894e-03 | E = -3010.3451268714 Ha
C     -0.4732585254     1.2325942825     0.6576808576
C      0.8789192628     1.2468944744     0.7200887706
C      1.5298286334     0.0111524312     0.7277281093
H     -1.0353583732     2.1540635766     0.6773175310
H      1.4587383875     2.1571304115     0.7377252801
N      3.0150712438     0.0444319878     0.7923236412
O      3.5266733409    -0.8579062514     1.3981405698
O      3.5365843799     0.9827468032     0.2532920112
C     -0.4485802193    -1.2563075637     0.5457994814
H     -0.9890048651    -2.1907122873     0.4635261025
C      0.9054979446    -1.2360349050     0.6697898613
H      1.5014831854    -2.1338205081     0.6939907820
C     -1.2338527704    -0.0199192075     0.6108597260
H     -1.8437376685    -0.0922952461     1.5178533720
Br    -2.5630846915     0.1055024800    -0.8006764598
15
attempt 3 | |g_proj| = 1.631e-03 | E = -3010.3451360845 Ha
C     -0.4733976302     1.2318086845     0.6590456483
C      0.8790671341     1.2473926499     0.7191086110
C      1.5302016643     0.0118715386     0.7274195877
H     -1.0351959529     2.1534922370     0.6754224138
H      1.4588033959     2.1579987629     0.7376918691
N      3.0153305756     0.0448824869     0.7942152884
O      3.5264175474    -0.8588896966     1.3977809798
O      3.5374198764     0.9826555461     0.2539642179
C     -0.4485479122    -1.2567170808     0.5475327198
H     -0.9889683864    -2.1908993034     0.4633194343
C      0.9058292676    -1.2356531266     0.6685496005
H      1.5013633702    -2.1337686219     0.6937192555
C     -1.2342412763    -0.0205230972     0.6098577729
H     -1.8426377502    -0.0926310702     1.5175927655
Br    -2.5655246547     0.1065005689    -0.7997805238
