15
para_th45_ph126 | OPTIMIZED | |g_proj|=1.631e-03 | E=-3010.3451360845 Ha
C     -0.4733976302     1.2318086845     0.6590456483
C      0.8790671341     1.2473926499     0.7191086110
C      1.5302016643     0.0118715386     0.7274195877
H     -1.0351959529     2.1534922370     0.6754224138
H      1.4588033959     2.1579987629     0.7376918691
N      3.0153305756     0.0448824869     0.7942152884
O      3.5264175474    -0.8588896966     1.3977809798
O      3.5374198764     0.9826555461     0.2539642179
C     -0.4485479122    -1.2567170808     0.5475327198
H     -0.9889683864    -2.1908993034     0.4633194343
C      0.9058292676    -1.2356531266     0.6685496005
H      1.5013633702    -2.1337686219     0.6937192555
C     -1.2342412763    -0.0205230972     0.6098577729
H     -1.8426377502    -0.0926310702     1.5175927655
Br    -2.5655246547     0.1065005689    -0.7997805238
