15
attempt 1 | |g_proj| = 2.179e-03 | E = -3010.3431680070 Ha
C     -1.7948427651     1.9527186590     0.7506042213
C     -0.3765199251     1.9973344399     0.6943619500
C      0.2761756540     0.8282126262     0.6494450246
C     -2.5139078427     0.7592526084     0.7867408885
H     -2.3291889991     2.8954754192     0.7857493828
H      0.1553711967     2.9380631144     0.7076229404
H     -3.5887189908     0.7789234449     0.8577467860
N      1.7598149333     0.8200460696     0.7446665609
O      2.2537028956    -0.2594549259     0.9434111876
O      2.3061599146     1.8803467934     0.6155870640
C     -1.8432316124    -0.4259668328     0.6832523329
H     -2.3723164780    -1.3716204825     0.6642101395
C     -0.3831907164    -0.4814886623     0.6074095087
H      0.0135977654    -1.1514679999     1.3668306221
Br     0.0835941164    -1.3758975775    -1.0679106775
15
attempt 2 | |g_proj| = 1.001e-03 | E = -3010.3432686282 Ha
C     -1.7968812541     1.9535914439     0.7686318327
C     -0.3782531799     1.9986346629     0.7112323005
C      0.2747750443     0.8306144308     0.6523939106
C     -2.5181684510     0.7607527050     0.7738738600
H     -2.3320413318     2.8942551869     0.8303838278
H      0.1563497934     2.9374050737     0.7304410233
H     -3.5944816443     0.7802794191     0.8316384213
N      1.7573720810     0.8190438315     0.7304640283
O      2.2428930964    -0.2484003333     1.0009066620
O      2.3127757913     1.8606312462     0.5162929951
C     -1.8441827069    -0.4226372668     0.6705023277
H     -2.3692283579    -1.3693408921     0.6402480282
C     -0.3834339202    -0.4785719053     0.6087059876
H      0.0085061885    -1.1443696407     1.3752198999
Br     0.1104979935    -1.3874112629    -1.0512071687
