15
attempt 1 | |g_proj| = 4.613e-03 | E = -3010.3356314996 Ha
C     -1.7795897628     1.9480922487     0.6748983943
C     -0.3606064393     1.9765785247     0.6979736951
C      0.3147059604     0.8167073896     0.6633973753
C     -2.5203201212     0.7752017402     0.6522288463
H     -2.3087795443     2.8913480719     0.6835109151
H      0.1709929089     2.9125465319     0.7523289390
H     -3.6007004047     0.8012103504     0.6330320536
N      1.8002098702     0.8483473358     0.7023805377
O      2.3687814994     0.0052876491     0.0595921008
O      2.2831808504     1.7119502113     1.3846046479
C     -1.8400491939    -0.4022898720     0.7389483699
H     -2.3790052452    -1.3317538112     0.8316038808
C     -0.3726540971    -0.4853583810     0.7046525536
H      0.0308750173    -1.0947756020     1.5082965626
Br    -0.1605422432    -1.5886155870    -0.8977208350
15
attempt 2 | |g_proj| = 2.444e-03 | E = -3010.3357136608 Ha
C     -1.7793614939     1.9554775657     0.6757778437
C     -0.3631632955     1.9771930492     0.6999840433
C      0.3089549831     0.8144403674     0.6608558450
C     -2.5144649878     0.7796006501     0.6543255679
H     -2.3082085280     2.8999404352     0.6849474430
H      0.1694597138     2.9119949815     0.7515934495
H     -3.5936374245     0.8054908025     0.6316657409
N      1.7889163486     0.8456750543     0.7018435268
O      2.3596868917     0.0104879306     0.0514772470
O      2.2716563101     1.7059726018     1.3871222601
C     -1.8357094384    -0.4006246114     0.7360354344
H     -2.3683299335    -1.3326429896     0.8303484392
C     -0.3703250022    -0.4899351522     0.7064001819
H      0.0325635160    -1.1003282641     1.5113097448
Br    -0.1515386086    -1.5982656159    -0.8939587258
