15
ortho_th54_ph252 | OPTIMIZED | |g_proj|=2.444e-03 | E=-3010.3357136608 Ha
C     -1.7793614939     1.9554775657     0.6757778437
C     -0.3631632955     1.9771930492     0.6999840433
C      0.3089549831     0.8144403674     0.6608558450
C     -2.5144649878     0.7796006501     0.6543255679
H     -2.3082085280     2.8999404352     0.6849474430
H      0.1694597138     2.9119949815     0.7515934495
H     -3.5936374245     0.8054908025     0.6316657409
N      1.7889163486     0.8456750543     0.7018435268
O      2.3596868917     0.0104879306     0.0514772470
O      2.2716563101     1.7059726018     1.3871222601
C     -1.8357094384    -0.4006246114     0.7360354344
H     -2.3683299335    -1.3326429896     0.8303484392
C     -0.3703250022    -0.4899351522     0.7064001819
H      0.0325635160    -1.1003282641     1.5113097448
Br    -0.1515386086    -1.5982656159    -0.8939587258
