15
para_th9_ph324 | OPTIMIZED | |g_proj|=1.273e-03 | E=-3010.3529283950 Ha
C     -0.4778827315     1.2440371615     0.4926325215
C      0.8782185435     1.2559543731     0.6260022578
C      1.5298040269     0.0255186148     0.7148218529
H     -1.0399042969     2.1669252717     0.4181170878
H      1.4527768179     2.1709819457     0.6619744562
N      3.0218444522     0.0441639800     0.8986355755
O      3.5674541565    -1.0258872714     0.8662637707
O      3.5189589524     1.1269431660     1.0536639909
C     -0.4452492482    -1.2500303329     0.5266583807
H     -0.9822982726    -2.1895624753     0.4773115411
C      0.9111905458    -1.2223928240     0.6509120606
H      1.5107170326    -2.1204718255     0.6959979762
C     -1.2285829947    -0.0131770900     0.5327732906
H     -1.6224546777     0.0045696752     1.5678621185
Br    -2.8286730082    -0.0700518899    -0.5181872034
