15
para_th18_ph342 | OPTIMIZED | |g_proj|=1.702e-03 | E=-3010.3465486957 Ha
C     -0.4746040886     1.2445450763     0.5012597638
C      0.8808293710     1.2546297760     0.6153009882
C      1.5277848886     0.0219888674     0.7063045624
H     -1.0345740807     2.1674436219     0.4185951522
H      1.4560236490     2.1688834723     0.6410666413
N      3.0171876958     0.0417966200     0.8873893495
O      3.5751038692    -1.0155546381     0.7691648078
O      3.4986020329     1.1161641941     1.1262918863
C     -0.4493727944    -1.2509364323     0.5601926712
H     -0.9892449861    -2.1898499406     0.5310723598
C      0.9078448660    -1.2256500007     0.6599077858
H      1.5055925341    -2.1244067445     0.7047436427
C     -1.2292949044    -0.0104828281     0.5487550226
H     -1.6535799391     0.0169876066     1.5723490882
Br    -2.7723787909    -0.0680381720    -0.5769540113
