15
attempt 1 | |g_proj| = 5.444e-03 | E = -3010.3462508077 Ha
C     -0.9154192870     2.0334550182     0.7128982064
C      0.4789532132     1.9452107060     0.8104675576
C      1.1563694678     0.7318529646     0.6482676683
C      0.4887291697    -0.4293453815     0.4677435923
C     -1.6320614720     0.8930201435     0.5218103433
H     -1.4050335019     2.9961242389     0.7741840677
H      1.0718267523     2.8318961601     0.9946433934
H      1.0296304272    -1.3611303280     0.3522911549
H     -2.7129302254     0.9263354041     0.4669443215
N      2.6466608742     0.7284484901     0.6500318450
O      3.1723660958    -0.2783792297     0.2581834233
O      3.1663454599     1.7269473367     1.0736563071
C     -0.9760954686    -0.4235583077     0.5569939261
H     -1.1267406727    -0.6951356884     1.6167345748
Br    -1.8344340952    -1.8241425207    -0.4333926665
15
attempt 2 | |g_proj| = 1.832e-03 | E = -3010.3463127717 Ha
C     -0.9114814455     2.0337843114     0.7117264112
C      0.4804193550     1.9496978253     0.8131305803
C      1.1529585256     0.7343673730     0.6531176673
C      0.4903648568    -0.4290827440     0.4645072234
C     -1.6255267480     0.8917100264     0.5192602322
H     -1.4000390177     2.9951048744     0.7739126411
H      1.0733412613     2.8371569588     0.9966737097
H      1.0227753566    -1.3659036275     0.3488519455
H     -2.7051418832     0.9156927712     0.4579263533
N      2.6386170313     0.7297393937     0.6521173226
O      3.1640645148    -0.2751624059     0.2561781361
O      3.1617952344     1.7263777372     1.0732141755
C     -0.9716249504    -0.4234962537     0.5589971795
H     -1.1215613865    -0.7011130127     1.6162737168
Br    -1.8407939659    -1.8172742168    -0.4244295749
