15
meta_th72_ph306 | OPTIMIZED | |g_proj|=1.290e-04 | E=-3010.3328817769 Ha
C     -0.8971319080     2.0326357258     0.6598764137
C      0.4957155146     1.9616534884     0.7431780262
C      1.1607898395     0.7301720441     0.6423661382
C      0.4834678419    -0.4243187176     0.5078162251
C     -1.6206101401     0.8836257070     0.5686561486
H     -1.3803519260     2.9922273005     0.6777879250
H      1.0923742628     2.8580019773     0.8748000372
H      1.0071749605    -1.3597336732     0.3923815555
H     -2.7011719599     0.9022390682     0.5375414628
N      2.6345579404     0.7314068542     0.6706564176
O      3.1682593407    -0.0764084942    -0.0362964833
O      3.1471319182     1.5462307631     1.3941988596
C     -0.9771054454    -0.4322717037     0.6210808871
H     -1.1710643347    -0.7561571723     1.6617570106
Br    -1.8338691616    -1.7877041380    -0.4443428867
