15
meta_th45_ph198 | OPTIMIZED | |g_proj|=1.500e-03 | E=-3010.3470596840 Ha
C     -0.9091924392     2.0347841289     0.7361486602
C      0.4854004497     1.9503445162     0.8013888749
C      1.1555929463     0.7280706339     0.6701737775
C      0.4907194598    -0.4390302411     0.5227382592
C     -1.6209424829     0.8887068159     0.5778279674
H     -1.3932180576     2.9993803006     0.7905433050
H      1.0850386675     2.8428030746     0.9311796641
H      1.0205014177    -1.3798171363     0.4305524302
H     -2.6998512072     0.9102801568     0.5233114060
N      2.6420390828     0.7398538698     0.6399196854
O      3.1734111946    -0.3151503928     0.4263043711
O      3.1578023920     1.8042032816     0.8549412348
C     -0.9748933706    -0.4315090155     0.5886594291
H     -1.1917822504    -0.8396178100     1.5855343629
Br    -1.8124590665    -1.6917031812    -0.6077657169
