15
attempt 1 | |g_proj| = 2.681e-03 | E = -3010.3479305390 Ha
C     -0.4739109963     1.2458366464     0.4850915800
C      0.8818324619     1.2566177779     0.6124595306
C      1.5299074098     0.0247980771     0.7106560913
H     -1.0323652952     2.1689820804     0.3959304467
H      1.4577665429     2.1709470860     0.6420474400
N      3.0193335965     0.0388057204     0.8961891776
O      3.5763227354    -1.0139898606     0.7367774989
O      3.5018330150     1.1027342472     1.1753745782
C     -0.4487129454    -1.2470615308     0.5549270467
H     -0.9881773279    -2.1855562445     0.5187663009
C      0.9083387857    -1.2213273202     0.6613548609
H      1.5053227239    -2.1202842390     0.7076328405
C     -1.2299290353    -0.0088570517     0.5391309446
H     -1.6376899242     0.0323942039     1.5700772266
Br    -2.8039524464    -0.0965191147    -0.5409758808
15
attempt 2 | |g_proj| = 2.007e-03 | E = -3010.3479324632 Ha
C     -0.4737255431     1.2457400438     0.4851654679
C      0.8815418685     1.2568276447     0.6125765357
C      1.5298939503     0.0245627271     0.7105881540
H     -1.0323322596     2.1688713431     0.3965336420
H      1.4575702244     2.1709561262     0.6420034751
N      3.0189658493     0.0387946174     0.8954981032
O      3.5761021342    -1.0139293093     0.7374663669
O      3.5016326019     1.1030683879     1.1745704414
C     -0.4488349908    -1.2471105276     0.5546479891
H     -0.9882040731    -2.1858415621     0.5193294230
C      0.9081922377    -1.2215352024     0.6614921875
H      1.5052817044    -2.1203568144     0.7075449190
C     -1.2293152742    -0.0087011500     0.5404235111
H     -1.6375678976     0.0320365175     1.5700707988
Br    -2.8032812282    -0.0958623641    -0.5424713273
15
attempt 3 | |g_proj| = 1.980e-03 | E = -3010.3479325751 Ha
C     -0.4737091199     1.2458320639     0.4853822049
C      0.8816698414     1.2567183679     0.6126322475
C      1.5296687006     0.0246072022     0.7104751412
H     -1.0323172471     2.1687752811     0.3969764423
H      1.4574515035     2.1710137638     0.6419609046
N      3.0188761710     0.0390337372     0.8952327175
O      3.5759664440    -1.0139995447     0.7379127023
O      3.5013460859     1.1031517275     1.1738328246
C     -0.4488254796    -1.2472656284     0.5546672327
H     -0.9882286508    -2.1859778285     0.5197180254
C      0.9081526491    -1.2216370937     0.6615015749
H      1.5052573955    -2.1204530884     0.7074797478
C     -1.2292640730    -0.0087074224     0.5406234913
H     -1.6376739109     0.0317730246     1.5704180410
Br    -2.8024510017    -0.0953440841    -0.5433736061
