15
attempt 1 | |g_proj| = 4.404e-03 | E = -3010.3474247506 Ha
C     -1.7976337694     1.9502799909     0.7553320416
C     -0.3809413435     1.9907612981     0.7083868403
C      0.2796460779     0.8211557157     0.6771962764
C     -2.5237344652     0.7581622887     0.7763810397
H     -2.3351248508     2.8916428963     0.7986918338
H      0.1553667948     2.9283192068     0.7257225521
H     -3.6024575926     0.7829748629     0.8327047161
N      1.7657081160     0.8114440348     0.7384151640
O      2.2693692930    -0.2475393286     1.0162635464
O      2.3109128679     1.8555227996     0.5092526013
C     -1.8466770581    -0.4227751631     0.6928721517
H     -2.3751086977    -1.3660323397     0.6596683581
C     -0.3823299302    -0.4859787415     0.6039808805
H      0.0140595751    -1.1586123504     1.3669496416
Br     0.0954441214    -1.3248484673    -1.0720897028
15
attempt 2 | |g_proj| = 3.819e-03 | E = -3010.3474553400 Ha
C     -1.7963969911     1.9488514967     0.7562378201
C     -0.3803574785     1.9923861978     0.7126102461
C      0.2800392562     0.8238140025     0.6784714977
C     -2.5233187025     0.7568571633     0.7772421437
H     -2.3332137726     2.8903446793     0.7899513617
H      0.1563152504     2.9294653391     0.7233485754
H     -3.6012459925     0.7805227139     0.8340233574
N      1.7653526703     0.8123483278     0.7421280213
O      2.2606925081    -0.2442292661     1.0412735758
O      2.3174511703     1.8478363218     0.4888306769
C     -1.8492224694    -0.4256480175     0.6919002729
H     -2.3755493462    -1.3720676896     0.6651590461
C     -0.3845340034    -0.4830914062     0.6131781974
H      0.0203692624    -1.1712001837     1.3581644639
Br     0.0901177732    -1.3017129710    -1.0827913110
15
attempt 3 | |g_proj| = 1.706e-03 | E = -3010.3474792185 Ha
C     -1.7969608523     1.9488961447     0.7549867498
C     -0.3804547205     1.9919966511     0.7115087405
C      0.2795939647     0.8227096081     0.6814413830
C     -2.5232566731     0.7562899973     0.7773856103
H     -2.3340777709     2.8906280297     0.7900222218
H      0.1559451380     2.9298513692     0.7233999701
H     -3.6018125925     0.7809281584     0.8337215298
N      1.7650400176     0.8110760253     0.7420108134
O      2.2616778900    -0.2442284225     1.0437038324
O      2.3164695352     1.8464195580     0.4873966437
C     -1.8474815581    -0.4255658599     0.6951619628
H     -2.3748011044    -1.3704990928     0.6651388036
C     -0.3832322371    -0.4844481876     0.6104007769
H      0.0202377479    -1.1701222974     1.3571677032
Br     0.0896123462    -1.2994549689    -1.0837187912
