15
attempt 1 | |g_proj| = 9.569e-04 | E = -3010.3294976925 Ha
C     -0.8957376897     2.0263881114     0.6403055148
C      0.4923076948     1.9470848294     0.7540812243
C      1.1618647890     0.7219226724     0.6300938535
C      0.4849538565    -0.4278712392     0.4546225637
C     -1.6246330766     0.8817243480     0.5289131355
H     -1.3801341646     2.9851595688     0.6564795959
H      1.0874531612     2.8370586185     0.9202343757
H      1.0064718052    -1.3613948660     0.3135029855
H     -2.7063191598     0.9032670284     0.4878748759
N      2.6349505808     0.7319694621     0.6828727068
O      3.2007933612     0.0269636820    -0.1054498010
O      3.1163464609     1.4534878793     1.5184254533
C     -0.9745084535    -0.4298315404     0.6019478553
H     -1.0951075881    -0.6525892097     1.6827388733
Br    -1.9005348355    -1.8417403199    -0.2951854799
