15
attempt 1 | |g_proj| = 7.456e-04 | E = -3010.3321195834 Ha
C     -1.7785551740     1.9305384621     0.6784700496
C     -0.3596046486     1.9802133021     0.7005375396
C      0.2972325417     0.8149493657     0.7240072493
C     -2.5008239517     0.7439594348     0.7483643109
H     -2.3149445365     2.8698813934     0.6256728364
H      0.1700402639     2.9221951475     0.7201536492
H     -3.5775071903     0.7620842353     0.7781776664
N      1.7801983738     0.8173616523     0.8064175823
O      2.2793811793    -0.2420731755     1.0877348057
O      2.3212077218     1.8741616164     0.6333393272
C     -1.8238483368    -0.4408366371     0.7876735452
H     -2.3476472482    -1.3879681390     0.8309293294
C     -0.3639183176    -0.4945526439     0.6319927560
H      0.1272934275    -1.2470224381     1.2472380749
Br    -0.2620050132    -1.1184148170    -1.2109807259
