15
attempt 1 | |g_proj| = 2.356e-04 | E = -3010.3294373831 Ha
C     -0.9085857363     1.9805911809     0.8261942967
C      0.4714687400     1.9178676859     0.6658527151
C      1.1573845542     0.6879024007     0.6771036820
C      0.4943705935    -0.4771013486     0.7174657706
C     -1.6222214374     0.8212845158     0.8767730371
H     -1.4011480561     2.9335346136     0.8905530091
H      1.0572790808     2.8217543805     0.5509761851
H      1.0241471070    -1.4163819621     0.7291143639
H     -2.7007890570     0.8283941388     0.9720066343
N      2.6298580901     0.7337123148     0.6330555033
O      3.2095908767    -0.0227012235     1.3627852851
O      3.0986708908     1.5429578378    -0.1264124162
C     -0.9773237182    -0.4803209820     0.6610633311
H     -1.4207082765    -1.2850206860     1.2436847436
Br    -1.5038269315    -0.7848739250    -1.2087584891
