15
attempt 1 | |g_proj| = 1.047e-03 | E = -3010.3250534146 Ha
C     -0.9191608576     2.0293450026     0.7556129172
C      0.4777056276     1.9454065896     0.7215163561
C      1.1462070055     0.7187263891     0.6790278501
C      0.4862575656    -0.4559033002     0.6979642308
C     -1.6232439776     0.8759426681     0.7468352169
H     -1.4039589878     2.9942190985     0.7720053301
H      1.0728074734     2.8472992894     0.7166500522
H      1.0169188958    -1.3998071701     0.6754688337
H     -2.7004205977     0.8924642938     0.7578265347
N      2.6269381867     0.7175167139     0.5890157391
O      3.1586088008    -0.3567410558     0.5241462409
O      3.1326974478     1.8048445819     0.5888213547
C     -0.9800505413    -0.4468755405     0.7134952681
H     -1.3617288998    -1.0939256166     1.5022068414
Br    -1.5214104154    -1.2709129797    -0.9691350919
