15
ortho_th36_ph18 | OPTIMIZED | |g_proj|=1.334e-03 | E=-3010.3462595323 Ha
C     -1.7971807207     1.9508643205     0.7611053342
C     -0.3801102668     1.9940231226     0.7128702846
C      0.2754467996     0.8240484101     0.6794338303
C     -2.5204753802     0.7571405432     0.7827486990
H     -2.3325644112     2.8932132766     0.8003108611
H      0.1560489345     2.9318474767     0.7189369749
H     -3.5977873329     0.7811394300     0.8393168082
N      1.7587954996     0.8106264180     0.7418892682
O      2.2503136862    -0.2417004983     1.0603955060
O      2.3111381121     1.8392766557     0.4645333955
C     -1.8459702499    -0.4251096899     0.6882887041
H     -2.3739973887    -1.3692599072     0.6558289496
C     -0.3840960370    -0.4831828942     0.6126027844
H      0.0131170086    -1.1741337110     1.3554337537
Br     0.1138208895    -1.3043162542    -1.0839672175
