15
ortho_th9_ph36 | OPTIMIZED | |g_proj|=1.777e-03 | E=-3010.3520327169 Ha
C     -1.7955148434     1.9508323224     0.7483175434
C     -0.3782523924     1.9921814941     0.7162358781
C      0.2853240325     0.8240385446     0.6714481177
C     -2.5239867069     0.7602002069     0.7567327884
H     -2.3312217694     2.8935813644     0.7803267510
H      0.1607501957     2.9299022280     0.7413286934
H     -3.6038329270     0.7825372881     0.8013852355
N      1.7736811291     0.8250313537     0.7301430481
O      2.2877485597    -0.2522277318     0.8920940963
O      2.3120598902     1.8934701683     0.6237927832
C     -1.8472152633    -0.4234869157     0.6967514368
H     -2.3744884612    -1.3697562827     0.6800185766
C     -0.3811709377    -0.4844870604     0.6173075427
H      0.0269204214    -1.1527497941     1.3767891912
Br     0.0356982077    -1.3845904781    -1.0429437370
