15
attempt 1 | |g_proj| = 2.998e-03 | E = -3010.3294035460 Ha
C     -1.7906647463     1.9449167437     0.7061644659
C     -0.3661054930     1.9885317369     0.7064109143
C      0.2823031970     0.8231161373     0.7004022683
C     -2.4995557372     0.7534237045     0.7458210152
H     -2.3247000233     2.8878403666     0.6909752536
H      0.1629353237     2.9290737348     0.7162858090
H     -3.5729365346     0.7692745552     0.7648031275
N      1.7636287976     0.8244201683     0.7695769291
O      2.2681173867    -0.2602452850     0.9052483024
O      2.2914517462     1.8984737612     0.6953894812
C     -1.8214174519    -0.4354033608     0.7534987806
H     -2.3394292767    -1.3847539064     0.7949272144
C     -0.3660002235    -0.4910662654     0.6577009300
H      0.0858418295    -1.2176438483     1.3271693102
Br    -0.1269696476    -1.2454815485    -1.1446458701
15
attempt 2 | |g_proj| = 2.926e-03 | E = -3010.3294417840 Ha
C     -1.7919158406     1.9429166522     0.7112854581
C     -0.3665823615     1.9871249394     0.7045407326
C      0.2856856980     0.8232815120     0.6929155698
C     -2.5040653724     0.7539274804     0.7518585247
H     -2.3284094270     2.8839521603     0.7050206275
H      0.1543648933     2.9316808352     0.7204774548
H     -3.5778569294     0.7676390937     0.7839202896
N      1.7686893786     0.8219580150     0.7686427619
O      2.2702743386    -0.2576581879     0.9487296990
O      2.3011591315     1.8902798194     0.6565378028
C     -1.8244755863    -0.4320765404     0.7437258775
H     -2.3536046774    -1.3749447142     0.7727155023
C     -0.3666083847    -0.4894801795     0.6469069192
H      0.0840552064    -1.2083268489     1.3263191840
Br    -0.1042109244    -1.2557973380    -1.1438684674
15
attempt 3 | |g_proj| = 1.166e-03 | E = -3010.3294619355 Ha
C     -1.7902108903     1.9442136657     0.7149161137
C     -0.3664628623     1.9891132785     0.7052453257
C      0.2825457839     0.8240823070     0.6932472327
C     -2.5019111427     0.7544111112     0.7529417057
H     -2.3250696602     2.8855382510     0.7073788073
H      0.1594571230     2.9305612886     0.7191987814
H     -3.5750234152     0.7692660749     0.7830927185
N      1.7619333002     0.8224745939     0.7675016628
O      2.2626339701    -0.2560833721     0.9546431840
O      2.2952500700     1.8894928729     0.6496450366
C     -1.8238571841    -0.4327648815     0.7423703134
H     -2.3450794265    -1.3805266311     0.7707739152
C     -0.3674993643    -0.4882118668     0.6483119018
H      0.0804449189    -1.2099502413     1.3267976035
Br    -0.1006520818    -1.2571397478    -1.1463363611
