15
attempt 1 | |g_proj| = 6.516e-04 | E = -3010.3520043361 Ha
C     -1.7922811497     1.9548841377     0.7341317045
C     -0.3737651773     1.9886222951     0.7222498126
C      0.2941664629     0.8240308350     0.6552654482
C     -2.5210473184     0.7683822072     0.7074855780
H     -2.3239942705     2.8990794320     0.7778888507
H      0.1650498985     2.9243131407     0.7784965043
H     -3.6015646390     0.7891182919     0.7220897707
N      1.7832798657     0.8470609750     0.7073590950
O      2.3312671561    -0.2181694775     0.5872245173
O      2.2913078676     1.9215133001     0.8833785313
C     -1.8401954284    -0.4153217161     0.6974592099
H     -2.3684898543    -1.3598800151     0.7177267989
C     -0.3739945205    -0.4853202842     0.6391096008
H      0.0342040050    -1.1167306985     1.4266730308
Br    -0.0574438368    -1.5371056269    -0.9668104195
