15
attempt 1 | |g_proj| = 4.620e-03 | E = -3010.3343898238 Ha
C     -1.7852615277     1.9269387466     0.7261882915
C     -0.3727510306     1.9827213299     0.7236351491
C      0.2886369842     0.8144556530     0.7487510990
C     -2.5152598414     0.7361817920     0.7822418959
H     -2.3275735317     2.8639003967     0.7022827699
H      0.1561263030     2.9256907735     0.7113493072
H     -3.5943128290     0.7589544871     0.8347951518
N      1.7700907952     0.7912797279     0.7858100597
O      2.2487884478    -0.1691771283     1.3343081558
O      2.3352090022     1.7270913788     0.2914708202
C     -1.8420505414    -0.4450656216     0.7490401235
H     -2.3730782404    -1.3884570367     0.7248501824
C     -0.3761460975    -0.4888442963     0.6183906487
H      0.0794301652    -1.2334289552     1.2698909246
Br    -0.0453489700    -1.0177644835    -1.2132765773
15
attempt 2 | |g_proj| = 3.487e-03 | E = -3010.3344134321 Ha
C     -1.7852192981     1.9273328934     0.7259723190
C     -0.3749533115     1.9832609535     0.7227376242
C      0.2907018453     0.8155472260     0.7459498801
C     -2.5157401296     0.7370124021     0.7833036192
H     -2.3276129746     2.8629880421     0.6998505076
H      0.1563642753     2.9236049541     0.7124538355
H     -3.5942377653     0.7591527144     0.8331005040
N      1.7702921327     0.7918713944     0.7894310845
O      2.2502169749    -0.1694868782     1.3354756066
O      2.3344801760     1.7274816348     0.2924223613
C     -1.8429551629    -0.4434328685     0.7507978907
H     -2.3714917160    -1.3881636464     0.7266711821
C     -0.3748145493    -0.4896132896     0.6169606640
H      0.0823573385    -1.2368140568     1.2691533208
Br    -0.0508887513    -1.0162647067    -1.2145523929
