15
para_th54_ph162 | OPTIMIZED | |g_proj|=2.767e-03 | E=-3010.3358729234 Ha
C     -0.4678149035     1.2485740743     0.5955645710
C      0.8815406286     1.2505117642     0.7300130836
C      1.5198296411     0.0126287736     0.7581789158
H     -1.0189026826     2.1785736778     0.5668995561
H      1.4626002938     2.1599943938     0.7539004399
N      3.0112344426     0.0338391210     0.8079797252
O      3.5325428026    -0.9644695755     1.2245222207
O      3.5226138583     1.0554808086     0.4369109204
C     -0.4526941032    -1.2502923258     0.5384149408
H     -0.9936225495    -2.1841143049     0.4420472207
C      0.8979072528    -1.2314361399     0.6969853039
H      1.4862676161    -2.1352107818     0.7197701966
C     -1.2300540501    -0.0067065092     0.5761880771
H     -1.7386443099    -0.0359034004     1.5485712834
Br    -2.6468846434     0.0160509026    -0.7305067816
