15
ortho_th18_ph270 | OPTIMIZED | |g_proj|=1.338e-03 | E=-3010.3533107019 Ha
C     -1.7915512496     1.9556342222     0.7418391606
C     -0.3738803936     1.9888840791     0.7230676959
C      0.2934448462     0.8244601389     0.6446342328
C     -2.5221218654     0.7708762673     0.7090224010
H     -2.3223276403     2.8992748743     0.7951536082
H      0.1659834492     2.9236562798     0.7821635321
H     -3.6024355423     0.7918446593     0.7220387016
N      1.7828160909     0.8477920236     0.7013864820
O      2.3327023816    -0.2131946387     0.5578069608
O      2.2901468936     1.9203403206     0.8911053518
C     -1.8439240298    -0.4143283906     0.6843751658
H     -2.3739810055    -1.3582768463     0.7021159984
C     -0.3775809075    -0.4836980709     0.6372183838
H      0.0173248630    -1.1010843987     1.4415815993
Br    -0.0281168374    -1.5677037143    -0.9437812314
