15
attempt 1 | |g_proj| = 1.692e-03 | E = -3010.3538385990 Ha
C     -1.7950191443     1.9552111307     0.7546684561
C     -0.3774831775     1.9921841879     0.7188975704
C      0.2869351185     0.8253073190     0.6502984573
C     -2.5242064042     0.7666534919     0.7421678056
H     -2.3278426783     2.8983617604     0.8119181030
H      0.1615862397     2.9288789153     0.7630676344
H     -3.6043455334     0.7886877775     0.7768363625
N      1.7764794827     0.8347356188     0.7129359452
O      2.3040912202    -0.2463020055     0.7685908720
O      2.3028667095     1.9145183696     0.7083313525
C     -1.8473469600    -0.4179131793     0.6798152431
H     -2.3763925438    -1.3632523693     0.6628656613
C     -0.3814149772    -0.4836533536     0.6142218748
H      0.0082273351    -1.1167779694     1.4116691702
Br     0.0403643736    -1.4921628979    -0.9865564759
