15
attempt 1 | |g_proj| = 1.902e-03 | E = -3010.3504111701 Ha
C     -1.7903341647     1.9587734931     0.7553610428
C     -0.3735617521     1.9918424905     0.7102941225
C      0.2882563298     0.8263219152     0.6239137638
C     -2.5218441477     0.7743141099     0.7299772109
H     -2.3162792056     2.9034968320     0.8290699877
H      0.1688537781     2.9258941076     0.7585476489
H     -3.6014213662     0.7964754869     0.7647807895
N      1.7754822711     0.8413964480     0.7108105342
O      2.3123298227    -0.2331697496     0.6476980323
O      2.2920661945     1.9184947046     0.8355021338
C     -1.8480227513    -0.4128682829     0.6639707169
H     -2.3808198324    -1.3560270209     0.6597632703
C     -0.3832148320    -0.4813252820     0.6157234061
H     -0.0050861417    -1.0926776468     1.4305431698
Br     0.0300948563    -1.5764648090    -0.9462277964
