15
para_th18_ph288 | OPTIMIZED | |g_proj|=1.331e-03 | E=-3010.3516181021 Ha
C     -0.4732851596     1.2462436510     0.4801954856
C      0.8817416436     1.2566982694     0.6131489117
C      1.5310382771     0.0244944256     0.7136785315
H     -1.0335489521     2.1684013111     0.3938329193
H      1.4588275049     2.1698838628     0.6422459990
N      3.0209666284     0.0389269342     0.8954808318
O      3.5779114266    -1.0135100443     0.7350090428
O      3.5048120803     1.1011350761     1.1806751470
C     -0.4477994272    -1.2454221764     0.5499019083
H     -0.9879985872    -2.1834845079     0.5171677236
C      0.9091303999    -1.2217342506     0.6629116996
H      1.5068497222    -2.1205532276     0.7079442166
C     -1.2291786567    -0.0075007035     0.5406679222
H     -1.6397190529     0.0342679179     1.5683434959
Br    -2.8138285541    -0.1003260597    -0.5357641615
