15
attempt 1 | |g_proj| = 5.941e-03 | E = -3010.3343498729 Ha
C     -0.9100068877     2.0304588029     0.7381359336
C      0.4835380977     1.9380569530     0.7560162849
C      1.1530205231     0.7150647806     0.6790746089
C      0.4884675621    -0.4576205790     0.6023572863
C     -1.6231401335     0.8844027135     0.6507427818
H     -1.3835767327     2.9991839684     0.7682276514
H      1.0905764200     2.8280791438     0.8132890864
H      1.0080193526    -1.4077225093     0.5284228994
H     -2.7017728945     0.9176803872     0.6398799848
N      2.6379564000     0.7454877838     0.6242885454
O      3.1824922955    -0.3034810734     0.4169558345
O      3.1366072918     1.8223111914     0.8139667318
C     -0.9824123048    -0.4424013530     0.6529161487
H     -1.2862575394    -0.9414421745     1.5806377322
Br    -1.6853447227    -1.5264590659    -0.7934538317
15
attempt 2 | |g_proj| = 3.726e-03 | E = -3010.3344610678 Ha
C     -0.9104415767     2.0343047796     0.7362354774
C      0.4860978591     1.9442315407     0.7593903155
C      1.1537915733     0.7170382541     0.6774308163
C      0.4876180072    -0.4527165071     0.6014337783
C     -1.6206490866     0.8854269678     0.6508579486
H     -1.3898547967     3.0022588238     0.7667480190
H      1.0885353908     2.8415007986     0.8187711992
H      1.0111062350    -1.3978445589     0.5318663777
H     -2.6987027500     0.9071159388     0.6309079366
N      2.6370678850     0.7373651510     0.6243096270
O      3.1786407352    -0.3120634457     0.4116315283
O      3.1355578922     1.8126703634     0.8185809110
C     -0.9785077082    -0.4374365847     0.6514337391
H     -1.2766468373    -0.9515499153     1.5689571877
Br    -1.6954460936    -1.5287026321    -0.7770971788
15
attempt 3 | |g_proj| = 3.746e-03 | E = -3010.3345034091 Ha
C     -0.9118551136     2.0353956554     0.7376245501
C      0.4832977527     1.9501274278     0.7597319989
C      1.1525490944     0.7255789039     0.6767937761
C      0.4908820864    -0.4481089626     0.5969279543
C     -1.6195076010     0.8847659522     0.6478760757
H     -1.3918253256     3.0017669160     0.7638143835
H      1.0844918528     2.8449724959     0.8262435290
H      1.0175934214    -1.3940794801     0.5327211750
H     -2.6975229728     0.9061401374     0.6234930349
N      2.6369593619     0.7373074935     0.6239431981
O      3.1676511137    -0.3170241444     0.4060987922
O      3.1491309840     1.8047715641     0.8262430635
C     -0.9773268063    -0.4403883502     0.6492838341
H     -1.2681604445    -0.9521838284     1.5739334481
Br    -1.7081906735    -1.5374428019    -0.7732711261
15
attempt 4 | |g_proj| = 1.921e-03 | E = -3010.3345152135 Ha
C     -0.9122438895     2.0349667822     0.7367317379
C      0.4841033999     1.9495220945     0.7607697828
C      1.1530599137     0.7240604548     0.6761217391
C      0.4899572199    -0.4483806773     0.5968391242
C     -1.6197549706     0.8841750651     0.6477025670
H     -1.3928619578     3.0020528487     0.7638161452
H      1.0846260781     2.8467543183     0.8268931684
H      1.0179508757    -1.3922997782     0.5323250136
H     -2.6975911153     0.9058669853     0.6227034617
N      2.6371443031     0.7364843156     0.6243244611
O      3.1675183561    -0.3175466731     0.4050345055
O      3.1483737619     1.8041830625     0.8271559641
C     -0.9771403337    -0.4397406514     0.6489287807
H     -1.2668101302    -0.9511747609     1.5727951902
Br    -1.7081647802    -1.5373244030    -0.7706839497
