15
ortho_th63_ph270 | OPTIMIZED | |g_proj|=4.178e-03 | E=-3010.3283877121 Ha
C     -1.7699986868     1.9514493764     0.6487879166
C     -0.3621475824     1.9775172853     0.6772307941
C      0.3085572323     0.8112793769     0.6631984037
C     -2.5165806756     0.7789657562     0.6815812017
H     -2.2971882241     2.8926683497     0.6049849337
H      0.1728715035     2.9133422535     0.6977874390
H     -3.5962736492     0.8078820323     0.6670304770
N      1.7842391569     0.8381440279     0.6991546759
O      2.3461189361     0.2043394913    -0.1521181550
O      2.2663191340     1.5054959083     1.5753558292
C     -1.8478795763    -0.4009520953     0.7633430176
H     -2.3838971149    -1.3323943269     0.8539184756
C     -0.3792915597    -0.4908467635     0.7219029386
H      0.0087136257    -1.0801799491     1.5488286071
Br    -0.0870634358    -1.5922339545    -0.8612585493
