15
attempt 1 | |g_proj| = 5.164e-04 | E = -3010.3476285143 Ha
C     -1.7909442756     1.9458304403     0.7164829437
C     -0.3728314605     1.9875066806     0.7182906671
C      0.2926154734     0.8212903170     0.6931048534
C     -2.5166915106     0.7559901925     0.7327827973
H     -2.3272191828     2.8884006486     0.7162688589
H      0.1626578381     2.9263323689     0.7527292558
H     -3.5964285478     0.7757425845     0.7522898777
N      1.7812719373     0.8318385009     0.7436798095
O      2.3089391051    -0.2484553664     0.8191807512
O      2.3053906038     1.9123278993     0.7310871229
C     -1.8365850107    -0.4272028967     0.7367846912
H     -2.3627668372    -1.3739021827     0.7551127240
C     -0.3707183739    -0.4890527153     0.6384414859
H      0.0738350374    -1.1753785781     1.3601132980
Br    -0.1040257234    -1.3467911110    -1.0766211173
