15
attempt 1 | |g_proj| = 1.163e-02 | E = -3010.3210759065 Ha
C     -0.4933211500     1.2446777288     0.9075600178
C      0.8612615397     1.2329340932     0.9919455492
C      1.5113966312     0.0131461040     0.8028603295
H     -1.0472993080     2.1730979203     1.0156812890
H      1.4201776712     2.1451654424     1.1220350058
N      2.9673291015     0.0125742048     0.5970128618
O      3.6482621877    -0.1380737028     1.5762794464
O      3.2774668453     0.1053407380    -0.5595603451
C     -0.4529515687    -1.2358766910     0.6116439525
H     -0.9843298228    -2.1624025518     0.4794599023
C      0.8896825890    -1.2376458177     0.7111830494
H      1.4884001911    -2.1313915169     0.6234251520
C     -1.2423723932     0.0062511677     0.6417531458
H     -2.0985520634    -0.0762567385     1.3036415606
Br    -1.9792311709     0.1959800977    -1.1594812627
15
attempt 2 | |g_proj| = 4.239e-03 | E = -3010.3236501403 Ha
C     -0.4774375560     1.2468891060     0.8947649320
C      0.8769463342     1.2279289160     0.9187846990
C      1.5138018072     0.0099299994     0.6843420853
H     -1.0317398202     2.1670268331     1.0427969414
H      1.4492163296     2.1184855376     1.1106897716
N      2.9869966997    -0.0034086579     0.7155419889
O      3.4618479511     0.5420378751     1.6747761207
O      3.5263459806    -0.5808962819    -0.1895836822
C     -0.4541937936    -1.2227082769     0.4984386260
H     -1.0000820509    -2.1426377209     0.3696692806
C      0.8946613585    -1.2176962958     0.4487758988
H      1.4859946184    -2.0990697129     0.2432891508
C     -1.2365120671     0.0070646916     0.6949969026
H     -1.9579314279    -0.1065168169     1.5017040700
Br    -2.2719950803     0.2010912827    -0.9435471265
15
attempt 3 | |g_proj| = 2.107e-03 | E = -3010.3237840729 Ha
C     -0.4746090894     1.2379690619     0.8878112322
C      0.8801489502     1.2139052820     0.9392975426
C      1.5198483933    -0.0007503282     0.7093910265
H     -1.0203270569     2.1631828423     1.0257724487
H      1.4570055465     2.1026785856     1.1243602088
N      2.9964846937     0.0094172848     0.7155922592
O      3.4865743940     0.6058961093     1.6350976863
O      3.5248221390    -0.5959343472    -0.1769385778
C     -0.4546603919    -1.2235415911     0.4743703732
H     -1.0018797972    -2.1381256683     0.3155021527
C      0.8957250495    -1.2297228060     0.4789388416
H      1.4798507821    -2.1196611768     0.2891832738
C     -1.2405872393     0.0049961617     0.6719216538
H     -1.9465063367    -0.1226134567     1.4941654223
Br    -2.3359707499     0.2398245251    -0.9190258802
15
attempt 4 | |g_proj| = 1.153e-03 | E = -3010.3237887052 Ha
C     -0.4743519392     1.2385494099     0.8883738240
C      0.8805510692     1.2142069078     0.9383124795
C      1.5196852480    -0.0010649450     0.7096553589
H     -1.0216687406     2.1632039187     1.0255760452
H      1.4575208426     2.1024729244     1.1251126600
N      2.9964577403     0.0080127403     0.7161858198
O      3.4868687922     0.6059590151     1.6341929720
O      3.5253478766    -0.5965193597    -0.1760806433
C     -0.4554600199    -1.2232820450     0.4739075799
H     -1.0017213265    -2.1385721214     0.3149619818
C      0.8947742428    -1.2287162085     0.4777749087
H      1.4798030857    -2.1176996293     0.2898159370
C     -1.2402191752     0.0054681099     0.6720848958
H     -1.9452682125    -0.1230516666     1.4944123156
Br    -2.3364001927     0.2385534278    -0.9188464668
