15
ortho_th63_ph162 | OPTIMIZED | |g_proj|=1.011e-03 | E=-3010.3250911534 Ha
C     -1.7759387100     1.9298436142     0.6967501516
C     -0.3560824638     1.9815220518     0.7054696369
C      0.2947817389     0.8163182030     0.7183080501
C     -2.4958637089     0.7439307918     0.7540575955
H     -2.3118591982     2.8686109265     0.6629037672
H      0.1711814191     2.9243430025     0.7236145269
H     -3.5707034481     0.7584121797     0.7872206119
N      1.7737947126     0.8142597276     0.8049829181
O      2.2547225029    -0.2110791220     1.2144145950
O      2.3257165580     1.8376425310     0.5112142636
C     -1.8220727191    -0.4437640386     0.7729409518
H     -2.3459903289    -1.3918272989     0.7986845545
C     -0.3636550083    -0.4934886070     0.6274681775
H      0.1240736491    -1.2470286810     1.2423906918
Br    -0.2556058844    -1.1032185447    -1.2306925190
