15
attempt 1 | |g_proj| = 2.841e-03 | E = -3010.3447650407 Ha
C     -0.4666607822     1.2482300370     0.4741659020
C      0.8871929037     1.2573897639     0.5984114367
C      1.5314234788     0.0228923852     0.7101761047
H     -1.0216930282     2.1705717585     0.3715742302
H      1.4670044206     2.1691305119     0.6180958614
N      3.0175037960     0.0312497695     0.8903068973
O      3.5820109473    -0.9888188486     0.5999846550
O      3.4892836112     1.0583697339     1.2976524075
C     -0.4531868024    -1.2408840581     0.5828663150
H     -0.9968106907    -2.1772921144     0.5631934407
C      0.9043893500    -1.2201098505     0.6768835555
H      1.4979044818    -2.1203811765     0.7248387560
C     -1.2311992459    -0.0011166810     0.5491738998
H     -1.6584784101     0.0632894462     1.5712780465
Br    -2.7827647131    -0.1250001984    -0.5631618075
15
attempt 2 | |g_proj| = 1.946e-03 | E = -3010.3447671991 Ha
C     -0.4666963520     1.2481251677     0.4741792917
C      0.8871724409     1.2575432696     0.5985743931
C      1.5314259826     0.0230092683     0.7101570732
H     -1.0216130373     2.1706147722     0.3721243936
H      1.4668901454     2.1692197240     0.6180459549
N      3.0171302493     0.0313443964     0.8897482758
O      3.5817797820    -0.9888641096     0.6002468594
O      3.4891197039     1.0584021434     1.2971451441
C     -0.4532462353    -1.2409406677     0.5827565938
H     -0.9968378643    -2.1774526154     0.5636869855
C      0.9040079598    -1.2203117248     0.6769890788
H      1.4977844927    -2.1203307368     0.7247669429
C     -1.2305581685    -0.0010513266     0.5505099482
H     -1.6583063697     0.0630981590     1.5710895920
Br    -2.7821334091    -0.1248852409    -0.5645808216
