15
meta_th45_ph288 | OPTIMIZED | |g_proj|=1.563e-04 | E=-3010.3488339133 Ha
C     -0.9061056006     2.0320609530     0.6834839547
C      0.4873759482     1.9556125574     0.7720483661
C      1.1583887122     0.7362781639     0.6223274125
C      0.4865157954    -0.4196593665     0.4259533730
C     -1.6295431213     0.8875754870     0.5285258281
H     -1.3941743897     2.9912952831     0.7410625800
H      1.0820451664     2.8441127634     0.9517279518
H      1.0191909863    -1.3508431933     0.2877366259
H     -2.7118414153     0.9052881433     0.4942654727
N      2.6390935546     0.7264850939     0.6893063775
O      3.1857376134    -0.2047497559     0.1644467627
O      3.1428700424     1.6509026448     1.2728839886
C     -0.9727869737    -0.4239335112     0.5560422340
H     -1.0973957937    -0.6763253957     1.6256389681
Br    -1.8812037800    -1.8525008335    -0.3439921542
