15
para_th36_ph198 | OPTIMIZED | |g_proj|=3.992e-04 | E=-3010.3485915245 Ha
C     -0.4718118947     1.2469888542     0.4426703242
C      0.8804084843     1.2500333606     0.6169366329
C      1.5232929032     0.0195879225     0.7325749205
H     -1.0259689909     2.1730434471     0.3469936562
H      1.4574407470     2.1620630211     0.6418057900
N      3.0141654629     0.0348737670     0.9102957908
O      3.5611886144    -1.0329523677     0.8523370705
O      3.5040874794     1.1126937710     1.1122161636
C     -0.4484069418    -1.2472379267     0.5023126450
H     -0.9862068518    -2.1849425552     0.4516754474
C      0.9031931538    -1.2261781600     0.6679701998
H      1.4970245293    -2.1274879513     0.7169098059
C     -1.2250440718    -0.0056944625     0.5233694546
H     -1.5333268858     0.0260130800     1.5840037115
Br    -2.8841164356    -0.0532833220    -0.4366319302
