15
attempt 1 | |g_proj| = 2.997e-03 | E = -3010.3541890095 Ha
C     -0.4746374267     1.2449944152     0.4997473210
C      0.8778241941     1.2521713161     0.6612156271
C      1.5262740933     0.0217379963     0.7395419684
H     -1.0285357913     2.1730466481     0.4453916566
H      1.4568873916     2.1636937632     0.6983709219
N      3.0205091780     0.0439104066     0.8841349904
O      3.5386781582    -1.0232997445     1.0729284077
O      3.5446318241     1.1224693490     0.8061029922
C     -0.4460878261    -1.2480149809     0.4977931806
H     -0.9858914634    -2.1829546182     0.4150208461
C      0.9063099237    -1.2249468220     0.6644261778
H      1.5005252497    -2.1257732606     0.7062729649
C     -1.2271815614    -0.0113399357     0.5289258189
H     -1.6049653940    -0.0121554983     1.5653968204
Br    -2.8384212700    -0.0460185564    -0.5198300394
15
attempt 2 | |g_proj| = 1.846e-03 | E = -3010.3542228621 Ha
C     -0.4751415939     1.2468211164     0.4997736984
C      0.8781205903     1.2539119544     0.6589842458
C      1.5260770096     0.0214122066     0.7378601402
H     -1.0334963784     2.1731344596     0.4398793787
H      1.4553452237     2.1668895286     0.6971162806
N      3.0216339711     0.0398507882     0.8847872147
O      3.5454992816    -1.0245138226     1.0750351772
O      3.5400552494     1.1209395953     0.8102899361
C     -0.4458300210    -1.2499646967     0.4952448685
H     -0.9841327632    -2.1873414230     0.4189511656
C      0.9068202341    -1.2250364491     0.6618751379
H      1.5023648538    -2.1252906299     0.7066046808
C     -1.2258431531    -0.0111881764     0.5296531109
H     -1.6045802931    -0.0171930102     1.5645732534
Br    -2.8409729274    -0.0349109632    -0.5151886296
