15
attempt 1 | |g_proj| = 5.089e-03 | E = -3010.3495516413 Ha
C     -0.9238814065     2.0114074485     0.7695669991
C      0.4728281212     1.9502319376     0.7005382715
C      1.1568464794     0.7254883376     0.6709587111
C      0.4957921979    -0.4497624954     0.6597674878
C     -1.6346249019     0.8528249879     0.7661589913
H     -1.4173444497     2.9700267159     0.8209018141
H      1.0678368650     2.8573186512     0.6685461868
H      1.0358311075    -1.3866521008     0.6154118673
H     -2.7179143128     0.8617489896     0.8028739533
N      2.6432235154     0.7418705392     0.6325918246
O      3.1881840932    -0.3179160884     0.7834012908
O      3.1566419239     1.8170120451     0.4655400977
C     -0.9765493373    -0.4603857995     0.6545634002
H     -1.3294332416    -1.1260306531     1.4488625634
Br    -1.6092699290    -1.2455835548    -0.9882257895
15
attempt 2 | |g_proj| = 2.423e-03 | E = -3010.3496113591 Ha
C     -0.9245092517     2.0149013373     0.7737785081
C      0.4717793999     1.9498435994     0.6949173351
C      1.1557058465     0.7239093624     0.6682202721
C      0.4962349328    -0.4521215382     0.6552065171
C     -1.6331285686     0.8550720626     0.7767464898
H     -1.4197758975     2.9742478422     0.8194957354
H      1.0657197824     2.8571055795     0.6658327959
H      1.0377212555    -1.3900542377     0.6180962106
H     -2.7162347518     0.8615191289     0.8078762088
N      2.6423423726     0.7402217283     0.6388724760
O      3.1893965972    -0.3187145079     0.7891760417
O      3.1514008375     1.8149097520     0.4569685775
C     -0.9764348459    -0.4587512213     0.6548277496
H     -1.3336304543    -1.1288207516     1.4427016673
Br    -1.5984205286    -1.2416691705    -0.9912589111
15
attempt 3 | |g_proj| = 1.428e-03 | E = -3010.3496181228 Ha
C     -0.9243568213     2.0144313246     0.7734336541
C      0.4717978302     1.9499758125     0.6959498914
C      1.1555907576     0.7243703760     0.6679650845
C      0.4960654017    -0.4518403490     0.6575051038
C     -1.6333239957     0.8546882285     0.7753894639
H     -1.4192119081     2.9738451015     0.8199897009
H      1.0658681103     2.8566936184     0.6643130810
H      1.0373322276    -1.3900077104     0.6181525742
H     -2.7163621899     0.8615430254     0.8099752736
N      2.6423629035     0.7402388366     0.6371226139
O      3.1886225531    -0.3184307091     0.7913097187
O      3.1517554538     1.8151285223     0.4559491530
C     -0.9768284667    -0.4592923159     0.6548353021
H     -1.3339116883    -1.1297952922     1.4422087309
Br    -1.5972334407    -1.2399494992    -0.9926416676
