15
meta_th18_ph72 | OPTIMIZED | |g_proj|=1.428e-03 | E=-3010.3496181228 Ha
C     -0.9243568213     2.0144313246     0.7734336541
C      0.4717978302     1.9499758125     0.6959498914
C      1.1555907576     0.7243703760     0.6679650845
C      0.4960654017    -0.4518403490     0.6575051038
C     -1.6333239957     0.8546882285     0.7753894639
H     -1.4192119081     2.9738451015     0.8199897009
H      1.0658681103     2.8566936184     0.6643130810
H      1.0373322276    -1.3900077104     0.6181525742
H     -2.7163621899     0.8615430254     0.8099752736
N      2.6423629035     0.7402388366     0.6371226139
O      3.1886225531    -0.3184307091     0.7913097187
O      3.1517554538     1.8151285223     0.4559491530
C     -0.9768284667    -0.4592923159     0.6548353021
H     -1.3339116883    -1.1297952922     1.4422087309
Br    -1.5972334407    -1.2399494992    -0.9926416676
