15
ortho_th54_ph0 | OPTIMIZED | |g_proj|=1.976e-03 | E=-3010.3392647069 Ha
C     -1.7940266731     1.9503385431     0.7494844838
C     -0.3740574888     1.9942528262     0.6967845817
C      0.2776836209     0.8266241770     0.6647139023
C     -2.5115481838     0.7587742742     0.7808112308
H     -2.3284106480     2.8924067792     0.7805360600
H      0.1557881370     2.9353609560     0.6983946766
H     -3.5861112332     0.7769242585     0.8367706488
N      1.7597717068     0.8209308338     0.7508975813
O      2.2537257640    -0.2550322011     0.9660534869
O      2.3051265172     1.8784573966     0.5984776190
C     -1.8377173157    -0.4264197654     0.6954380332
H     -2.3636689044    -1.3720342655     0.6676670474
C     -0.3785956726    -0.4840904057     0.6262414136
H      0.0305483464    -1.1708402981     1.3636983946
Br     0.0379911622    -1.3411764006    -1.0862412147
