15
attempt 1 | |g_proj| = 4.229e-03 | E = -3010.3490898470 Ha
C     -0.4720216914     1.2482304561     0.5164999102
C      0.8781211099     1.2500731224     0.6818754664
C      1.5231807440     0.0173612037     0.7533177336
H     -1.0179578550     2.1809336345     0.4716522566
H      1.4608860778     2.1589047255     0.7139023415
N      3.0163686332     0.0408730508     0.8697222025
O      3.5360756572    -1.0131044477     1.1175663246
O      3.5371488627     1.1111855174     0.7051159523
C     -0.4474317941    -1.2449934504     0.5025283216
H     -0.9867918382    -2.1783458408     0.4085327318
C      0.9035730342    -1.2273749303     0.6757470815
H      1.4931391398    -2.1309458066     0.7140576717
C     -1.2277857289    -0.0075686862     0.5326539737
H     -1.6199771163    -0.0130719422     1.5624026752
Br    -2.8106079512    -0.0446361284    -0.5601349833
15
attempt 2 | |g_proj| = 2.735e-03 | E = -3010.3491646708 Ha
C     -0.4723814349     1.2476442012     0.5137758942
C      0.8793750619     1.2534467928     0.6756222473
C      1.5245280861     0.0188059744     0.7423240362
H     -1.0307516582     2.1738881588     0.4544988894
H      1.4563397609     2.1664831688     0.7145698691
N      3.0215647902     0.0374759637     0.8675606068
O      3.5407662412    -1.0155259793     1.1215362039
O      3.5430114393     1.1096341797     0.7216450672
C     -0.4485459467    -1.2511973002     0.4966676177
H     -0.9871650612    -2.1887105514     0.4158877814
C      0.9028737963    -1.2267502974     0.6717976367
H      1.4972235620    -2.1271004656     0.7157197796
C     -1.2258115815    -0.0098538448     0.5355316825
H     -1.6199672091    -0.0247731091     1.5644380966
Br    -2.8151405590    -0.0159464136    -0.5461357441
15
attempt 3 | |g_proj| = 1.459e-03 | E = -3010.3491841766 Ha
C     -0.4723759434     1.2454342992     0.5127378683
C      0.8789494021     1.2527466178     0.6747166897
C      1.5247783547     0.0193546179     0.7440049494
H     -1.0288189228     2.1717241972     0.4535807309
H      1.4561251622     2.1655901199     0.7122031866
N      3.0202077901     0.0388821536     0.8716066109
O      3.5376718422    -1.0162131248     1.1198418535
O      3.5433849669     1.1101477111     0.7235131923
C     -0.4478076874    -1.2500826864     0.4979401314
H     -0.9857263486    -2.1868636485     0.4168296184
C      0.9040841771    -1.2261464228     0.6687954288
H      1.4976529355    -2.1269358670     0.7150158121
C     -1.2268315042    -0.0105709855     0.5345358324
H     -1.6169856774    -0.0261427522     1.5650914981
Br    -2.8183892560    -0.0134037516    -0.5449737339
