15
attempt 1 | |g_proj| = 4.367e-04 | E = -3010.3623335917 Ha
C     -0.9164961478     2.0301369312     0.7465444434
C      0.4818372041     1.9618467693     0.7784306914
C      1.1578567058     0.7414028874     0.6461473352
C      0.4931340905    -0.4260893661     0.4886616451
C     -1.6320521846     0.8798282705     0.6013678521
H     -1.4102521025     2.9886958188     0.8251604338
H      1.0785466071     2.8593478450     0.9030546404
H      1.0320331584    -1.3602091749     0.3787794913
H     -2.7152843919     0.8923857549     0.5763879135
N      2.6468502536     0.7421442133     0.6607543611
O      3.1778585548    -0.3247363907     0.5079267651
O      3.1724537841     1.8112590415     0.8285033301
C     -0.9710509729    -0.4309703645     0.5605088918
H     -1.1707202003    -0.8440812332     1.5605511672
Br    -1.8165476212    -1.7193620020    -0.5913212513
