15
para_th9_ph342 | OPTIMIZED | |g_proj|=1.668e-03 | E=-3010.3523482777 Ha
C     -0.4784412096     1.2437303313     0.4941917323
C      0.8779862200     1.2556613910     0.6257163872
C      1.5294941461     0.0255038319     0.7135644310
H     -1.0399256226     2.1671467523     0.4191047339
H      1.4521387135     2.1709487453     0.6618545225
N      3.0211960551     0.0440975999     0.8985923623
O      3.5673674915    -1.0257055079     0.8676979249
O      3.5175378216     1.1274726451     1.0511025467
C     -0.4451636989    -1.2505842783     0.5285918304
H     -0.9821671358    -2.1899051627     0.4782947175
C      0.9111415078    -1.2226595777     0.6502821072
H      1.5104582867    -2.1207532317     0.6957654307
C     -1.2286127408    -0.0138198058     0.5329593802
H     -1.6221438068     0.0034676320     1.5685355071
Br    -2.8249467258    -0.0670808856    -0.5208139317
