15
attempt 1 | |g_proj| = 2.590e-04 | E = -3010.3158505879 Ha
C     -0.4885422369     1.2019276319     1.0558767857
C      0.8642952361     1.2019689670     1.0476537408
C      1.4884918179    -0.0042378084     0.7379883547
H     -1.0332341152     2.1143999086     1.2472435762
H      1.4479810573     2.0873556408     1.2493469861
N      2.9677218709     0.0242023149     0.5892685887
O      3.5400584538     0.8832526882     1.2024244399
O      3.4154046784    -0.8027216663    -0.1578478773
C     -0.4941470567    -1.2518844136     0.5769264408
H     -1.0392294150    -2.1732530307     0.4132158513
C      0.8626009014    -1.2276598193     0.5422809971
H      1.4417176617    -2.1121943266     0.3386833773
C     -1.2575158447    -0.0036443451     0.7059864217
H     -2.1711780188    -0.1139901029     1.2798939047
Br    -1.7785056665     0.3239988406    -1.1635018784
