15
attempt 1 | |g_proj| = 3.062e-04 | E = -3010.3158314999 Ha
C     -0.5080725334     1.2456570755     0.7754907037
C      0.8474180634     1.2554037073     0.7746257034
C      1.4918077039     0.0247873916     0.7430987065
H     -1.0647412154     2.1727565073     0.7735358716
H      1.4139019480     2.1723008600     0.7688561651
N      2.9840282365     0.0454191961     0.6366457734
O      3.5134034101    -1.0306260610     0.5898854394
O      3.4853769364     1.1351044677     0.5937966125
C     -0.4722303226    -1.2539822521     0.7869218333
H     -1.0017353253    -2.1970472838     0.7933649313
C      0.8831322375    -1.2233745122     0.7855319541
H      1.4758193381    -2.1233556910     0.7871062913
C     -1.2567990125    -0.0156732861     0.6977428455
H     -2.1399881914    -0.0256662098     1.3252853170
Br    -1.8854020417    -0.0341834318    -1.1664485532
