15
para_th54_ph306 | OPTIMIZED | |g_proj|=1.976e-03 | E=-3010.3307306581 Ha
C     -0.4564620867     1.2629131593     0.5647103829
C      0.8931356343     1.2656861754     0.6095950634
C      1.5240167654     0.0171473583     0.7100721857
H     -0.9996609362     2.1885562804     0.4643026779
H      1.4847081949     2.1691055037     0.5755252565
N      2.9996721297     0.0088112317     0.7658691523
O      3.5349084682    -0.7893522157     0.0462212476
O      3.4874090679     0.8100056647     1.5160403903
C     -0.4774054682    -1.2195615329     0.7880201877
H     -1.0325336771    -2.1468455105     0.8611480837
C      0.8789417588    -1.2163493043     0.7717593240
H      1.4563133351    -2.1232491968     0.8177850085
C     -1.2462472957     0.0227663173     0.6451727044
H     -1.9577367355     0.1165693417     1.4748135830
Br    -2.3231398212    -0.2186827930    -0.9455955246
