15
para_th36_ph162 | OPTIMIZED | |g_proj|=1.459e-03 | E=-3010.3491841766 Ha
C     -0.4723759434     1.2454342992     0.5127378683
C      0.8789494021     1.2527466178     0.6747166897
C      1.5247783547     0.0193546179     0.7440049494
H     -1.0288189228     2.1717241972     0.4535807309
H      1.4561251622     2.1655901199     0.7122031866
N      3.0202077901     0.0388821536     0.8716066109
O      3.5376718422    -1.0162131248     1.1198418535
O      3.5433849669     1.1101477111     0.7235131923
C     -0.4478076874    -1.2500826864     0.4979401314
H     -0.9857263486    -2.1868636485     0.4168296184
C      0.9040841771    -1.2261464228     0.6687954288
H      1.4976529355    -2.1269358670     0.7150158121
C     -1.2268315042    -0.0105709855     0.5345358324
H     -1.6169856774    -0.0261427522     1.5650914981
Br    -2.8183892560    -0.0134037516    -0.5449737339
