15
ortho_th72_ph54 | OPTIMIZED | |g_proj|=2.495e-04 | E=-3010.3288511499 Ha
C     -1.7929061460     1.9374471731     0.8020513898
C     -0.3853195455     1.9902660209     0.7798117368
C      0.2849152078     0.8238241153     0.7334522304
C     -2.5149338793     0.7353529250     0.7840508811
H     -2.3436066020     2.8703820455     0.8373690515
H      0.1315883106     2.9324395911     0.8105393594
H     -3.5919036352     0.7598545670     0.8291857844
N      1.7516906938     0.7796241134     0.7710260382
O      2.2054781779     0.1477421387     1.6906892004
O      2.3216402536     1.3366556631    -0.1234102742
C     -1.8307544303    -0.4281363993     0.6835989055
H     -2.3470879532    -1.3717031875     0.6328915341
C     -0.3674502747    -0.4780328430     0.5823156621
H      0.0760115980    -1.2342608149     1.2315289623
Br     0.0491373470    -1.0169783867    -1.2553725021
