15
attempt 1 | |g_proj| = 1.303e-03 | E = -3010.3223782756 Ha
C     -0.4911210615     1.2707841448     0.7481010272
C      0.8629412954     1.2639657319     0.7146836123
C      1.4887082145     0.0174916625     0.7189018357
H     -1.0354647467     2.2043245303     0.7320705405
H      1.4482454232     2.1707437679     0.6944209370
N      2.9779280951     0.0037463618     0.6240106556
O      3.4588428359    -1.0269800142     0.2374097631
O      3.5291303381     1.0287468915     0.9193232765
C     -0.5001132070    -1.2250777818     0.8769168189
H     -1.0465622994    -2.1578897570     0.9439343055
C      0.8570153294    -1.2156888493     0.8251077339
H      1.4401116833    -2.1208945880     0.8578643003
C     -1.2654094196     0.0175806028     0.6882657499
H     -2.1805208797     0.0523512397     1.2761455992
Br    -1.7778122562    -0.1356834631    -1.1917164190
