15
attempt 1 | |g_proj| = 1.031e-03 | E = -3010.3614070887 Ha
C     -0.9138286744     2.0300004290     0.7375200665
C      0.4826896935     1.9591587212     0.7934658967
C      1.1574375463     0.7398350916     0.6521029650
C      0.4930437613    -0.4270568454     0.4847576837
C     -1.6292990280     0.8818749463     0.5764425812
H     -1.4058588165     2.9890811117     0.8140065383
H      1.0785291669     2.8543295955     0.9366021738
H      1.0292559673    -1.3623405282     0.3743249509
H     -2.7117159186     0.8978764717     0.5427999933
N      2.6455204019     0.7434868201     0.6547852648
O      3.1758525476    -0.3162852505     0.4579766676
O      3.1701433186     1.8049495079     0.8676454026
C     -0.9708625855    -0.4305184088     0.5597198441
H     -1.1598599398    -0.8172129625     1.5718767126
Br    -1.8328807038    -1.7455796923    -0.5525690268
