15
ortho_th81_ph108 | OPTIMIZED | |g_proj|=3.958e-04 | E=-3010.3188920813 Ha
C     -1.7663131806     1.9135947095     0.8045216035
C     -0.3674619532     1.9692872615     0.7799810889
C      0.3047669334     0.8047542921     0.7116048891
C     -2.5034157466     0.7264181880     0.7852800558
H     -2.3054982991     2.8454788796     0.8541503482
H      0.1613238806     2.9071249189     0.8355530248
H     -3.5814599700     0.7463706589     0.8348454574
N      1.7673791934     0.8009572388     0.7982966919
O      2.1735784570     0.4586073573     1.8788037782
O      2.3786380105     1.1508020822    -0.1705959480
C     -1.8357126377    -0.4456334430     0.6884624693
H     -2.3667791333    -1.3850830566     0.6404706683
C     -0.3683141118    -0.4912402192     0.5472916409
H      0.0937830612    -1.2707075637     1.1449743232
Br    -0.1380153886    -0.9462545736    -1.3439121226
