15
attempt 1 | |g_proj| = 6.732e-05 | E = -3010.3623946757 Ha
C     -0.9163833053     2.0297285574     0.7474826496
C      0.4817470314     1.9609490658     0.7819749244
C      1.1581707092     0.7405843932     0.6494033435
C      0.4938438491    -0.4272201064     0.4925496490
C     -1.6313763713     0.8793664736     0.6010757293
H     -1.4101319607     2.9883817760     0.8253745132
H      1.0786222516     2.8585048876     0.9050622392
H      1.0325154190    -1.3615923287     0.3839130288
H     -2.7145537173     0.8918658343     0.5748570006
N      2.6472343385     0.7434728123     0.6577224871
O      3.1791274923    -0.3248546137     0.5191308387
O      3.1718408962     1.8153161698     0.8105694942
C     -0.9707267494    -0.4317991857     0.5622825363
H     -1.1716003983    -0.8511658574     1.5592348943
Br    -1.8201627502    -1.7099388868    -0.5991756270
