15
meta_th63_ph270 | OPTIMIZED | |g_proj|=4.001e-03 | E=-3010.3328559716 Ha
C     -0.9051442109     2.0276894323     0.6725372516
C      0.4839055037     1.9448441076     0.7787682704
C      1.1581802427     0.7288776205     0.6277826877
C      0.4876263296    -0.4250839568     0.4407921968
C     -1.6310539513     0.8865633254     0.5121665888
H     -1.3954972011     2.9850901046     0.7193931174
H      1.0770375174     2.8293650982     0.9698160816
H      1.0195549849    -1.3575618855     0.3205664840
H     -2.7133688236     0.9085829955     0.4576058092
N      2.6353600763     0.7255740662     0.6745757983
O      3.1863072876    -0.1203019504     0.0261611882
O      3.1386954487     1.5737738621     1.3623261729
C     -0.9727347232    -0.4241616065     0.5726552465
H     -1.0827770466    -0.6352356959     1.6562011287
Br    -1.8779246936    -1.8464164972    -0.3198902943
