15
para_th54_ph90 | OPTIMIZED | |g_proj|=1.298e-03 | E=-3010.3409197874 Ha
C     -0.4817125318     1.2213229347     0.7601652326
C      0.8716960211     1.2425197321     0.7479528805
C      1.5338726006     0.0123489982     0.7128591359
H     -1.0470742987     2.1382685390     0.8203938456
H      1.4408307943     2.1567463054     0.7705595989
N      3.0067866993     0.0402880329     0.7491070118
O      3.5139696419    -0.6668884091     1.5765589008
O      3.5237802975     0.7724518108    -0.0498992250
C     -0.4481671573    -1.2551096575     0.5885146691
H     -0.9848438260    -2.1882424258     0.5107540852
C      0.9045334385    -1.2384772826     0.6511218129
H      1.5021056369    -2.1354923793     0.6461077092
C     -1.2445976346    -0.0250806455     0.6540573230
H     -1.9723757048    -0.1159429152     1.4660231718
Br    -2.3528847272     0.1888078401    -0.9388365342
