15
attempt 1 | |g_proj| = 1.082e-03 | E = -3010.3426604829 Ha
C     -0.4672232933     1.2483554112     0.4261298354
C      0.8850336559     1.2457994917     0.5921001709
C      1.5250914597     0.0154128179     0.7241538678
H     -1.0178032672     2.1750428464     0.3161577704
H      1.4659691046     2.1539053287     0.6060853248
N      3.0099639579     0.0308559082     0.9069568078
O      3.5840932196    -0.9923435188     0.6502775604
O      3.4676113763     1.0636396221     1.3146735278
C     -0.4491918469    -1.2420296034     0.5385531684
H     -0.9914555563    -2.1761383651     0.5071051312
C      0.9019278122    -1.2304761525     0.6824613147
H      1.4928948358    -2.1338207472     0.7291845348
C     -1.2257923217     0.0010849250     0.5393139951
H     -1.5532024437     0.0675556806     1.5928958608
Br    -2.8619973835    -0.0793231658    -0.4606091796
