15
attempt 1 | |g_proj| = 6.304e-03 | E = -3010.3357889656 Ha
C     -0.4662808899     1.2456921136     0.5971678820
C      0.8825174499     1.2476468161     0.7352555453
C      1.5195168674     0.0126320333     0.7636223856
H     -1.0115437766     2.1777582679     0.5757919231
H      1.4661862431     2.1549738842     0.7509347299
N      3.0070838978     0.0374912393     0.8057185846
O      3.5272125812    -0.9603841407     1.2247225921
O      3.5155544201     1.0589407750     0.4287621434
C     -0.4522266096    -1.2492674566     0.5393628927
H     -0.9963739193    -2.1800208917     0.4383727330
C      0.8973875508    -1.2310277713     0.7028780483
H      1.4825509146    -2.1366477486     0.7159867123
C     -1.2315947751    -0.0074770741     0.5764718695
H     -1.7349324505    -0.0291688852     1.5527571855
Br    -2.6391382176     0.0063793172    -0.7423655630
15
attempt 2 | |g_proj| = 3.838e-03 | E = -3010.3358587530 Ha
C     -0.4679912384     1.2490664447     0.5972902902
C      0.8798285967     1.2510981184     0.7307262639
C      1.5177067863     0.0107773956     0.7590972472
H     -1.0170901734     2.1787339475     0.5692253917
H      1.4637880941     2.1592862730     0.7535752618
N      3.0097002365     0.0346629679     0.8081000652
O      3.5339535962    -0.9619273414     1.2240282959
O      3.5213379864     1.0549169445     0.4344844041
C     -0.4543651285    -1.2495864631     0.5406421788
H     -0.9936042839    -2.1836261415     0.4401879358
C      0.8963917432    -1.2333430062     0.6974733759
H      1.4855956511    -2.1356411048     0.7191661129
C     -1.2284682568    -0.0055949688     0.5762326485
H     -1.7377015476    -0.0340570232     1.5483496926
Br    -2.6431627721     0.0127544360    -0.7331394954
15
attempt 3 | |g_proj| = 2.763e-03 | E = -3010.3358727336 Ha
C     -0.4678109245     1.2485747234     0.5954192020
C      0.8815401862     1.2505149425     0.7299711220
C      1.5198513420     0.0126368729     0.7581812675
H     -1.0189001467     2.1785755967     0.5666582435
H      1.4625994152     2.1599970082     0.7538986367
N      3.0112603099     0.0338375423     0.8080423861
O      3.5325367622    -0.9646233264     1.2242643137
O      3.5226619810     1.0556089356     0.4373581604
C     -0.4526862361    -1.2502845458     0.5383568279
H     -0.9936347823    -2.1841026368     0.4420185849
C      0.8979166281    -1.2314196601     0.6969790254
H      1.4862606034    -2.1351971012     0.7197972528
C     -1.2300539786    -0.0067071536     0.5761251723
H     -1.7384642371    -0.0358558792     1.5486278783
Br    -2.6471576293     0.0159651600    -0.7302583998
15
attempt 4 | |g_proj| = 2.210e-03 | E = -3010.3358754611 Ha
C     -0.4679551079     1.2483972012     0.5951833983
C      0.8807798830     1.2511081172     0.7295208908
C      1.5199989666     0.0122613362     0.7578779694
H     -1.0188843471     2.1779291048     0.5657831284
H      1.4624374865     2.1604404554     0.7539204383
N      3.0113633639     0.0338235687     0.8084456377
O      3.5324377375    -0.9648601991     1.2239477432
O      3.5236714760     1.0552479581     0.4384784831
C     -0.4528592453    -1.2500059209     0.5382292425
H     -0.9931824756    -2.1842426954     0.4424472924
C      0.8980062996    -1.2316470165     0.6964698534
H      1.4864685578    -2.1346696378     0.7199883587
C     -1.2295480567    -0.0066860468     0.5758080317
H     -1.7383634726    -0.0364704622     1.5485980331
Br    -2.6484517686     0.0168947155    -0.7292588228
15
attempt 5 | |g_proj| = 2.072e-03 | E = -3010.3358758234 Ha
C     -0.4680305183     1.2483533164     0.5950452944
C      0.8809300598     1.2510148227     0.7293947476
C      1.5198781721     0.0124777704     0.7577507340
H     -1.0189725971     2.1777950054     0.5654530344
H      1.4623183504     2.1605727440     0.7539155367
N      3.0114287775     0.0337789177     0.8085555492
O      3.5324087752    -0.9650820244     1.2238952330
O      3.5239886501     1.0552254810     0.4388935576
C     -0.4527897858    -1.2500435702     0.5381422990
H     -0.9930493638    -2.1842787102     0.4426108535
C      0.8979883669    -1.2315141155     0.6963042702
H      1.4866046324    -2.1346223800     0.7200507199
C     -1.2296319185    -0.0066905319     0.5757669164
H     -1.7382491385    -0.0366987713     1.5485022512
Br    -2.6489031616     0.0172325243    -0.7288413143
15
attempt 6 | |g_proj| = 2.072e-03 | E = -3010.3358758408 Ha
C     -0.4680305185     1.2483533170     0.5950452947
C      0.8809300602     1.2510148233     0.7293947479
C      1.5198781728     0.0124777704     0.7577507344
H     -1.0189725976     2.1777950064     0.5654530347
H      1.4623183511     2.1605727450     0.7539155371
N      3.0114287789     0.0337789177     0.8085555496
O      3.5324087769    -0.9650820249     1.2238952336
O      3.5239886518     1.0552254815     0.4388935578
C     -0.4527897860    -1.2500435708     0.5381422993
H     -0.9930493643    -2.1842787112     0.4426108537
C      0.8979883673    -1.2315141161     0.6963042705
H      1.4866046331    -2.1346223810     0.7200507202
C     -1.2296319191    -0.0066905319     0.5757669167
H     -1.7382491393    -0.0366987713     1.5485022519
Br    -2.6489031629     0.0172325243    -0.7288413146
15
attempt 1 | |g_proj| = 6.316e-03 | E = -3010.3357889431 Ha
C     -0.4662873994     1.2456803853     0.5972850288
C      0.8825190655     1.2476461621     0.7352816079
C      1.5194985732     0.0126381777     0.7636557003
H     -1.0115366413     2.1777468243     0.5760430759
H      1.4661655733     2.1549906979     0.7509173260
N      3.0070413820     0.0374947776     0.8056969248
O      3.5271859061    -0.9602544885     1.2249777810
O      3.5154875608     1.0587955443     0.4283108470
C     -0.4522100207    -1.2492662327     0.5394128898
H     -0.9963188610    -2.1800293689     0.4384411984
C      0.8974055903    -1.2310402825     0.7028519125
H      1.4825728024    -2.1366806133     0.7159528073
C     -1.2316090612    -0.0074824606     0.5765197319
H     -1.7350916103    -0.0292368743     1.5527085954
Br    -2.6389035732     0.0065182300    -0.7426157626
15
attempt 2 | |g_proj| = 3.846e-03 | E = -3010.3358589084 Ha
C     -0.4679972167     1.2490668075     0.5974230888
C      0.8798203990     1.2511007793     0.7307631538
C      1.5177100434     0.0107656473     0.7590831717
H     -1.0171060095     2.1787336662     0.5694490609
H      1.4637739843     2.1592928932     0.7535733818
N      3.0096842159     0.0346508771     0.8080305802
O      3.5339487173    -0.9617956102     1.2242974660
O      3.5212937873     1.0547898244     0.4340623407
C     -0.4543594483    -1.2495969139     0.5406649063
H     -0.9935848979    -2.1836525308     0.4402410358
C      0.8963953259    -1.2333512161     0.6974891261
H      1.4856021329    -2.1356352475     0.7191363857
C     -1.2284574087    -0.0056027517     0.5762901956
H     -1.7378856425    -0.0341201694     1.5482977097
Br    -2.6429186924     0.0128744229    -0.7333619340
15
attempt 3 | |g_proj| = 2.767e-03 | E = -3010.3358729234 Ha
C     -0.4678149035     1.2485740743     0.5955645710
C      0.8815406286     1.2505117642     0.7300130836
C      1.5198296411     0.0126287736     0.7581789158
H     -1.0189026826     2.1785736778     0.5668995561
H      1.4626002938     2.1599943938     0.7539004399
N      3.0112344426     0.0338391210     0.8079797252
O      3.5325428026    -0.9644695755     1.2245222207
O      3.5226138583     1.0554808086     0.4369109204
C     -0.4526941032    -1.2502923258     0.5384149408
H     -0.9936225495    -2.1841143049     0.4420472207
C      0.8979072528    -1.2314361399     0.6969853039
H      1.4862676161    -2.1352107818     0.7197701966
C     -1.2300540501    -0.0067065092     0.5761880771
H     -1.7386443099    -0.0359034004     1.5485712834
Br    -2.6468846434     0.0160509026    -0.7305067816
