15
para_th81_ph126 | OPTIMIZED | |g_proj|=1.295e-03 | E=-3010.3273157963 Ha
C     -0.4674541591     1.2246839816     0.8373686745
C      0.8781396357     1.2382309856     0.8497213495
C      1.5265051840    -0.0015256297     0.7206285849
H     -1.0249293235     2.1411850343     0.9280149286
H      1.4605007468     2.1425084686     0.9398209258
N      2.9891014901     0.0336865877     0.7069430039
O      3.5060669212    -0.1713049762     1.7694501652
O      3.4745487664     0.3003333976    -0.3567979007
C     -0.4624229795    -1.2521704585     0.5721549345
H     -1.0112805223    -2.1780095744     0.4585112604
C      0.8927584942    -1.2383519312     0.6035847012
H      1.4744551297    -2.1382605487     0.5222761201
C     -1.2426384736    -0.0129858196     0.6723011337
H     -2.0048622307    -0.1095205413     1.4474153508
Br    -2.2225694220     0.1690215022    -1.0059536052
