15
attempt 1 | |g_proj| = 6.750e-03 | E = -3010.3219783026 Ha
C     -0.4772517420     1.2598452371     0.5720305590
C      0.8755384415     1.2502485129     0.6683770337
C      1.5140988973     0.0175880837     0.7377965047
H     -1.0193161275     2.1962867942     0.5086060340
H      1.4549177136     2.1557078177     0.6567865754
N      3.0062415272     0.0237519868     0.7742473616
O      3.5426423600    -1.0115297182     0.4805557871
O      3.4999801018     1.0644517108     1.1135254511
C     -0.4539550856    -1.2377774900     0.6784764348
H     -0.9911688859    -2.1729512997     0.6495416794
C      0.8953499092    -1.2260107792     0.7556987824
H      1.4827646222    -2.1273147989     0.7670541660
C     -1.2359322051     0.0040890422     0.6277931478
H     -1.8543505991     0.0534122304     1.5289487141
Br    -2.4736396410    -0.1022768520    -0.8539985679
15
attempt 2 | |g_proj| = 1.297e-03 | E = -3010.3222465660 Ha
C     -0.4745498276     1.2552319493     0.5690274158
C      0.8790208515     1.2476950922     0.6666519672
C      1.5158366367     0.0137206736     0.7354809545
H     -1.0228541562     2.1858318868     0.4884069372
H      1.4564926679     2.1561078092     0.6646795676
N      3.0081037535     0.0288529253     0.7756700914
O      3.5520495416    -0.9967508148     0.4689721772
O      3.4949952217     1.0681097084     1.1258829981
C     -0.4556966449    -1.2416127050     0.6694545370
H     -0.9962292054    -2.1757815050     0.6710342279
C      0.8948760022    -1.2332298107     0.7523232612
H      1.4831219542    -2.1378067099     0.7803570952
C     -1.2370933163     0.0025654244     0.6175434270
H     -1.8405209294     0.0399828059     1.5310158194
Br    -2.4916332591    -0.0653962519    -0.8510608090
