15
para_th72_ph198 | OPTIMIZED | |g_proj|=1.297e-03 | E=-3010.3222465660 Ha
C     -0.4745498276     1.2552319493     0.5690274158
C      0.8790208515     1.2476950922     0.6666519672
C      1.5158366367     0.0137206736     0.7354809545
H     -1.0228541562     2.1858318868     0.4884069372
H      1.4564926679     2.1561078092     0.6646795676
N      3.0081037535     0.0288529253     0.7756700914
O      3.5520495416    -0.9967508148     0.4689721772
O      3.4949952217     1.0681097084     1.1258829981
C     -0.4556966449    -1.2416127050     0.6694545370
H     -0.9962292054    -2.1757815050     0.6710342279
C      0.8948760022    -1.2332298107     0.7523232612
H      1.4831219542    -2.1378067099     0.7803570952
C     -1.2370933163     0.0025654244     0.6175434270
H     -1.8405209294     0.0399828059     1.5310158194
Br    -2.4916332591    -0.0653962519    -0.8510608090
