15
ortho_th18_ph126 | OPTIMIZED | |g_proj|=3.350e-03 | E=-3010.3449453270 Ha
C     -1.7936935371     1.9442460028     0.7405442567
C     -0.3782894155     1.9888312712     0.7109715523
C      0.2852945990     0.8206448157     0.6943061350
C     -2.5225492739     0.7532527712     0.7695067118
H     -2.3314835732     2.8854743529     0.7624518307
H      0.1577906325     2.9276113945     0.7246226581
H     -3.6019717218     0.7768805601     0.8210165016
N      1.7727952141     0.8139796890     0.7452430173
O      2.2776820511    -0.2464157759     1.0137759371
O      2.3183627960     1.8625701618     0.5343022910
C     -1.8469223072    -0.4289071725     0.7124301623
H     -2.3760855576    -1.3736733740     0.6867166828
C     -0.3796346124    -0.4871810713     0.6116069667
H      0.0347952488    -1.1705403380     1.3571488196
Br     0.0304085413    -1.2822965193    -1.0949155176
