15
attempt 1 | |g_proj| = 3.750e-03 | E = -3010.3401691953 Ha
C     -1.7776247009     1.9559178124     0.7052346543
C     -0.3632518408     1.9798904967     0.7135161478
C      0.3037279494     0.8150656430     0.6472315200
C     -2.5198523688     0.7823451800     0.6581491056
H     -2.2973045699     2.9028593836     0.7475621740
H      0.1829033564     2.9098272202     0.7782403213
H     -3.6004096139     0.8111095774     0.6330277145
N      1.7859043253     0.8517822318     0.6820548390
O      2.3583843341    -0.0242373114     0.0903071705
O      2.2683930054     1.7629745947     1.3000419952
C     -1.8474566310    -0.4044546088     0.7034910704
H     -2.3857009730    -1.3381551185     0.7796522493
C     -0.3798591745    -0.4894295803     0.6820517673
H     -0.0046014648    -1.0653275390     1.5219660138
Br    -0.0767525655    -1.6656911949    -0.8527987190
