15
para_th18_ph306 | OPTIMIZED | |g_proj|=1.709e-03 | E=-3010.3497075808 Ha
C     -0.4733720904     1.2460401051     0.4821930777
C      0.8818454729     1.2567562497     0.6127097050
C      1.5307483917     0.0246557282     0.7125169010
H     -1.0329747701     2.1684498744     0.3944319779
H      1.4586504860     2.1703527626     0.6421856463
N      3.0205084538     0.0388911116     0.8961454794
O      3.5771161900    -1.0136614583     0.7349304467
O      3.5041889655     1.1015648736     1.1794033741
C     -0.4483360916    -1.2458644391     0.5518936770
H     -0.9881901797    -2.1841674147     0.5175326689
C      0.9087763378    -1.2213394743     0.6622580916
H      1.5062306158    -2.1202527899     0.7078972758
C     -1.2297298520    -0.0078685779     0.5397217687
H     -1.6390999228     0.0338731978     1.5688479899
Br    -2.8104427101    -0.0999092709    -0.5372284019
