15
attempt 1 | |g_proj| = 5.692e-04 | E = -3010.3377279195 Ha
C     -0.9309093761     1.9938520347     0.8016298806
C      0.4563113553     1.9267734413     0.6439083005
C      1.1467925882     0.7070927802     0.6858246522
C      0.4939019520    -0.4688427423     0.7599871156
C     -1.6364293190     0.8344642728     0.8789047820
H     -1.4254409614     2.9520726087     0.8456145779
H      1.0419032908     2.8283180949     0.5080489716
H      1.0370832442    -1.4056128261     0.7753161909
H     -2.7166129854     0.8410451938     0.9640446650
N      2.6275956354     0.7271141487     0.6225893953
O      3.1915862110    -0.2476586064     1.0415154869
O      3.1142723477     1.7166944515     0.1412539262
C     -0.9799802182    -0.4739650460     0.6852860728
H     -1.4223478543    -1.2643427307     1.2906962211
Br    -1.3895591832    -0.8654061063    -1.1731625595
