15
attempt 1 | |g_proj| = 7.946e-04 | E = -3010.3555460607 Ha
C     -0.4775665769     1.2441883747     0.4903554929
C      0.8782442569     1.2560362178     0.6267443861
C      1.5300175846     0.0253887649     0.7164412235
H     -1.0401847182     2.1668153298     0.4173749452
H      1.4530529016     2.1707701726     0.6621114274
N      3.0223171994     0.0442119400     0.8978140368
O      3.5680735348    -1.0257957190     0.8669213403
O      3.5197390450     1.1267394085     1.0545048407
C     -0.4449470760    -1.2498426944     0.5240548705
H     -0.9821882921    -2.1894123723     0.4766760031
C      0.9113800391    -1.2226003570     0.6517472240
H      1.5112540964    -2.1205445406     0.6960569685
C     -1.2279178187    -0.0128472807     0.5338154795
H     -1.6226104417     0.0047802016     1.5670176010
Br    -2.8327444469    -0.0703669668    -0.5161961756
