15
ortho_th36_ph72 | OPTIMIZED | |g_proj|=2.290e-03 | E=-3010.3383474082 Ha
C     -1.7923406203     1.9338554405     0.7335782313
C     -0.3793797240     1.9832691818     0.7223618477
C      0.2856083517     0.8150712622     0.7459607684
C     -2.5190968847     0.7407925931     0.7913399030
H     -2.3357235077     2.8718315147     0.7123193633
H      0.1501438147     2.9236405787     0.7070040851
H     -3.5984727750     0.7665522897     0.8353995865
N      1.7654166856     0.7886278783     0.7857732806
O      2.2464991936    -0.1787046034     1.3204300196
O      2.3300836708     1.7202909829     0.2833481534
C     -1.8400127869    -0.4371174402     0.7462463096
H     -2.3625132738    -1.3825040424     0.7163795625
C     -0.3756655676    -0.4883636742     0.6214835388
H      0.0730330440    -1.2411741805     1.2703899839
Br    -0.0010805246    -1.0315910266    -1.2022866409
