15
para_th27_ph252 | OPTIMIZED | |g_proj|=6.904e-04 | E=-3010.3523705011 Ha
C     -0.4682346012     1.2486223482     0.4647411568
C      0.8863786689     1.2554598467     0.6007852136
C      1.5329188124     0.0225215354     0.7143328823
H     -1.0254824686     2.1713574434     0.3674140192
H      1.4668050568     2.1657834083     0.6185982748
N      3.0197737023     0.0319500078     0.8871506174
O      3.5870505945    -0.9885091532     0.6031901419
O      3.4903977748     1.0568423321     1.3019157573
C     -0.4491981691    -1.2390670256     0.5741502031
H     -0.9949381915    -2.1725605829     0.5608054151
C      0.9062439826    -1.2228291335     0.6793176192
H      1.5010010935    -2.1230733741     0.7253060842
C     -1.2282093948    -0.0002896414     0.5547715364
H     -1.6598017924     0.0637530981     1.5683185626
Br    -2.7987857661    -0.1224406310    -0.5553578014
