15
attempt 1 | |g_proj| = 1.264e-03 | E = -3010.3258461562 Ha
C     -1.7852824070     1.9270517545     0.7997552547
C     -0.3822782170     1.9826575187     0.7830635730
C      0.2949556764     0.8178481230     0.7395028279
C     -2.5148000135     0.7288699525     0.7852482804
H     -2.3335300053     2.8590686659     0.8262969025
H      0.1371633673     2.9237231681     0.8132884438
H     -3.5932926857     0.7526447841     0.8258416322
N      1.7601726067     0.7835091299     0.7850644718
O      2.2066974935     0.2522533045     1.7693902310
O      2.3372465937     1.2561221924    -0.1525345459
C     -1.8321252784    -0.4332050280     0.6932831600
H     -2.3500161483    -1.3760040801     0.6410303277
C     -0.3657867262    -0.4814906919     0.5754076830
H      0.0871089526    -1.2535124956     1.1966194033
Br    -0.0197340900    -0.9550595718    -1.2915296809
