15
ortho_th63_ph252 | OPTIMIZED | |g_proj|=3.288e-03 | E=-3010.3306446551 Ha
C     -1.7735499486     1.9546133967     0.6477351046
C     -0.3639612701     1.9779015513     0.6801062242
C      0.3069930717     0.8110517338     0.6720631741
C     -2.5168328939     0.7775130785     0.6832580100
H     -2.3019130701     2.8968631338     0.5983933929
H      0.1683764710     2.9130586010     0.6982583831
H     -3.5960536981     0.8111517735     0.6671265947
N      1.7824337621     0.8370600317     0.6959499682
O      2.3442451583     0.1935096203    -0.1484529786
O      2.2653285744     1.5058465777     1.5696892756
C     -1.8435469559    -0.3983055307     0.7666468032
H     -2.3793286623    -1.3291881886     0.8530531141
C     -0.3755684423    -0.4928577270     0.7243985102
H      0.0129483213    -1.0879501594     1.5499076246
Br    -0.0830713300    -1.5857911286    -0.8684052000
