15
attempt 1 | |g_proj| = 3.903e-04 | E = -3010.3154512880 Ha
C     -0.5158580838     1.2460810141     0.8148597365
C      0.8400304327     1.2555265312     0.7910025740
C      1.4834760871     0.0245094945     0.7383131553
H     -1.0737811352     2.1727170216     0.8256704773
H      1.4082757338     2.1715917604     0.7902990873
N      2.9738073560     0.0451568890     0.6002987155
O      3.5016281390    -1.0301421144     0.5224630767
O      3.4755064826     1.1344875783     0.5508194154
C     -0.4803750292    -1.2534667519     0.8289195500
H     -1.0117329759    -2.1956302100     0.8498356593
C      0.8755109113    -1.2234882837     0.8037975829
H      1.4694161874    -2.1229344033     0.8105980073
C     -1.2626099656    -0.0154018968     0.6965564111
H     -2.1904616856    -0.0253956656     1.2580511214
Br    -1.7269132230    -0.0360904860    -1.2160449750
