15
attempt 1 | |g_proj| = 6.136e-03 | E = -3010.3298828344 Ha
C     -0.9083779241     2.0342612841     0.7017876236
C      0.4809704632     1.9444901770     0.7782249323
C      1.1541361847     0.7281048942     0.6450547192
C      0.4920206669    -0.4364385587     0.4960259390
C     -1.6281954782     0.8918104969     0.5469798848
H     -1.3998191772     2.9940097826     0.7496892705
H      1.0766925924     2.8312838076     0.9291253841
H      1.0238831693    -1.3758801667     0.4061975175
H     -2.7097557579     0.9171221379     0.5020467406
N      2.6356746301     0.7292592892     0.6466994663
O      3.1813797781    -0.2129083466     0.1415447145
O      3.1451189579     1.6740848650     1.1819699573
C     -0.9739362413    -0.4268580346     0.5898200049
H     -1.1465942673    -0.7264389784     1.6389475315
Br    -1.8150308616    -1.7643036526    -0.4826559806
15
attempt 2 | |g_proj| = 4.225e-03 | E = -3010.3299149044 Ha
C     -0.9112766565     2.0331221572     0.7010269717
C      0.4811110866     1.9437502665     0.7790577008
C      1.1546514059     0.7277142873     0.6448057391
C      0.4903848176    -0.4369663696     0.4950941344
C     -1.6283708850     0.8910935840     0.5463062700
H     -1.3995932994     2.9948389052     0.7488206681
H      1.0776556940     2.8321753460     0.9306468764
H      1.0243598413    -1.3751700832     0.4034681009
H     -2.7085216762     0.9172819588     0.5001771916
N      2.6390124195     0.7296159611     0.6467011640
O      3.1800395772    -0.2138449722     0.1377510307
O      3.1444830747     1.6748891474     1.1876671884
C     -0.9744910244    -0.4258372216     0.5892998465
H     -1.1443085295    -0.7241476844     1.6388019551
Br    -1.8169691097    -1.7669162810    -0.4781671277
