15
ortho_th63_ph54 | OPTIMIZED | |g_proj|=2.032e-03 | E=-3010.3308890277 Ha
C     -1.7933709666     1.9348266819     0.7733375934
C     -0.3840073274     1.9847927750     0.7570901496
C      0.2826189383     0.8171260690     0.7515462849
C     -2.5165996378     0.7360476450     0.7921427087
H     -2.3407037790     2.8698733423     0.7762628952
H      0.1381606403     2.9252733813     0.7509099248
H     -3.5940122597     0.7623419848     0.8326417071
N      1.7530476468     0.7787375988     0.7832194540
O      2.2218323688    -0.0041273101     1.5703222934
O      2.3136947138     1.5001418728     0.0068862985
C     -1.8329861886    -0.4317839998     0.7142425201
H     -2.3514501689    -1.3744566998     0.6704314765
C     -0.3709558543    -0.4833257415     0.6089667364
H      0.0756491613    -1.2496123650     1.2429023852
Br     0.0455818477    -0.9813785265    -1.2411744821
