15
ortho_th90_ph54 | OPTIMIZED | |g_proj|=3.961e-03 | E=-3010.3271256809 Ha
C     -1.7904634364     1.9406447887     0.8613797739
C     -0.3834009611     1.9889986538     0.8593703735
C      0.2879792541     0.8273390399     0.7362907715
C     -2.5149378235     0.7436718724     0.7550218040
H     -2.3414010081     2.8702767578     0.9434351801
H      0.1341766961     2.9275786718     0.9422046352
H     -3.5930473779     0.7690896547     0.7656930670
N      1.7526510329     0.7897837726     0.7386595227
O      2.2487949562     0.4484472491     1.7807617554
O      2.2741613329     1.0532684275    -0.3081234417
C     -1.8295836852    -0.4157063856     0.6313829800
H     -2.3413967920    -1.3566838579     0.5333581494
C     -0.3647175489    -0.4730517745     0.5594241797
H      0.0626477767    -1.2155367755     1.2358786425
Br     0.0450367155    -1.1136433823    -1.2450094433
