15
attempt 1 | |g_proj| = 6.401e-04 | E = -3010.3175677267 Ha
C     -1.7641651381     1.9270808477     0.8118489582
C     -0.3587514182     1.9856335420     0.7301333533
C      0.2870084892     0.8166983828     0.6536641139
C     -2.4932012041     0.7393935184     0.8023001353
H     -2.2970476748     2.8611068909     0.8982988786
H      0.1728026867     2.9259273448     0.7662737866
H     -3.5661841781     0.7584855522     0.8782714010
N      1.7492133167     0.8041741346     0.7756505536
O      2.1248513327     0.1882663269     1.7396981684
O      2.3818294405     1.4265265496    -0.0290959912
C     -1.8382538277    -0.4434629798     0.6695692035
H     -2.3743343337    -1.3832684164     0.6141661792
C     -0.3754463000    -0.4899063310     0.5446478096
H      0.0739666317    -1.2150117617     1.2178325289
Br    -0.0757887154    -1.1171668611    -1.2835311016
