15
attempt 1 | |g_proj| = 7.459e-05 | E = -3010.3196733121 Ha
C     -0.9239590821     1.9838376824     0.8675214315
C      0.4556382095     1.9144926857     0.6950831153
C      1.1471561271     0.6979978946     0.7139762261
C      0.4930989989    -0.4732648768     0.7726277869
C     -1.6382488655     0.8276381705     0.8897307050
H     -1.4219679891     2.9363777739     0.9357783811
H      1.0309124457     2.8185576441     0.5638119389
H      1.0303922680    -1.4114068776     0.7807843644
H     -2.7193817617     0.8397864409     0.9536248904
N      2.6170278596     0.7140352832     0.5983737496
O      3.2296508144     0.0370305052     1.3792445774
O      3.0447270906     1.3958275264    -0.2959585003
C     -0.9772579328    -0.4699284175     0.6737626530
H     -1.4495580097    -1.2925322310     1.1975884477
Br    -1.3100634530    -0.7168502627    -1.2544921147
