15
para_th54_ph180 | OPTIMIZED | |g_proj|=3.084e-03 | E=-3010.3346104691 Ha
C     -0.4711367127     1.2533021286     0.5001955437
C      0.8774747188     1.2495243290     0.6734537103
C      1.5155496796     0.0161705149     0.7543678199
H     -1.0209921598     2.1828119527     0.4256332291
H      1.4578282117     2.1574840321     0.6994302951
N      3.0119587675     0.0310698279     0.8620519143
O      3.5324805635    -1.0419174672     1.0030150826
O      3.5280441575     1.1138660531     0.8142879990
C     -0.4525804832    -1.2447456477     0.5130895008
H     -0.9932904718    -2.1784879592     0.4327250280
C      0.8957122393    -1.2278306153     0.6913022459
H      1.4849472249    -2.1306962131     0.7380144102
C     -1.2252600484    -0.0014804412     0.5359138448
H     -1.5824796200    -0.0002985659     1.5816286632
Br    -2.7923367658    -0.0312514500    -0.5596696041
