15
attempt 1 | |g_proj| = 2.312e-03 | E = -3010.3383609598 Ha
C     -0.4751552573     1.2182074344     0.7889576698
C      0.8742300214     1.2425697978     0.7790795823
C      1.5321311398     0.0082010873     0.7123324568
H     -1.0359235943     2.1335629941     0.8614951101
H      1.4511959510     2.1528464672     0.8201674340
N      2.9998642292     0.0412718372     0.7259501534
O      3.5098306661    -0.5388397627     1.6447051607
O      3.5070710461     0.6590114867    -0.1693272435
C     -0.4545350553    -1.2566109807     0.5887551231
H     -0.9991962117    -2.1869721695     0.5066270170
C      0.9000244201    -1.2380315616     0.6430772540
H      1.4910346609    -2.1366116066     0.6234862320
C     -1.2432195899    -0.0236529861     0.6641623935
H     -1.9947420651    -0.1164374942     1.4497979538
Br    -2.2966911072     0.1890059345    -0.9738266746
15
attempt 2 | |g_proj| = 1.085e-03 | E = -3010.3383694283 Ha
C     -0.4751976719     1.2196557134     0.7861787022
C      0.8750156146     1.2417719044     0.7790355400
C      1.5327572198     0.0070391261     0.7124757443
H     -1.0383144341     2.1350655351     0.8612107665
H      1.4496518945     2.1533382266     0.8191266130
N      3.0006049664     0.0394350254     0.7261208626
O      3.5112901516    -0.5402714329     1.6447650330
O      3.5075160876     0.6602100584    -0.1670315811
C     -0.4542819119    -1.2559520253     0.5865742603
H     -0.9974928495    -2.1864771300     0.5071804954
C      0.8998202361    -1.2390956081     0.6438499853
H      1.4921166755    -2.1370212713     0.6227178798
C     -1.2436793583    -0.0232365438     0.6641274462
H     -1.9955182967    -0.1162011184     1.4512342479
Br    -2.2983690662     0.1892600183    -0.9721263686
