15
attempt 1 | |g_proj| = 5.700e-03 | E = -3010.3294583445 Ha
C     -0.4606423133     1.2584262279     0.5540563670
C      0.8887585966     1.2609269041     0.6112580630
C      1.5164408033     0.0134348316     0.6974000672
H     -1.0030205530     2.1867077235     0.4450192360
H      1.4718522687     2.1701897630     0.5984860965
N      2.9946044124     0.0193377588     0.7918696011
O      3.5589047506    -0.8959649126     0.2567757483
O      3.4555444724     0.9519712530     1.3933783936
C     -0.4705620023    -1.2401507799     0.7314568297
H     -1.0171690522    -2.1760709068     0.7828057781
C      0.8854649260    -1.2279654292     0.7363347933
H      1.4716052664    -2.1311394594     0.7813753230
C     -1.2363747301     0.0101523021     0.6242122762
H     -1.8558158923     0.0889097629     1.5295406741
Br    -2.4336716105    -0.1412445594    -0.8685295156
15
attempt 2 | |g_proj| = 5.009e-03 | E = -3010.3297909013 Ha
C     -0.4664441247     1.2634141415     0.5764823346
C      0.8869896339     1.2638583889     0.6208194391
C      1.5234497549     0.0197550738     0.7061726098
H     -1.0178517739     2.1893095642     0.4890290961
H      1.4785886562     2.1671920294     0.6007539139
N      3.0130004693     0.0176210946     0.7856931490
O      3.5562356263    -0.9275354373     0.2810590460
O      3.5023251655     0.9664280765     1.3369928356
C     -0.4716477651    -1.2303920068     0.7429002371
H     -1.0255827246    -2.1621114891     0.7775582680
C      0.8863403505    -1.2185953986     0.7409677767
H      1.4714059805    -2.1224033610     0.7722389478
C     -1.2438376327     0.0137689374     0.6318430208
H     -1.9196095916     0.0841309103     1.4943808829
Br    -2.4074426782    -0.1769200442    -0.8914518212
15
attempt 3 | |g_proj| = 3.406e-03 | E = -3010.3298503641 Ha
C     -0.4646891628     1.2595107022     0.5768826973
C      0.8880155913     1.2633934631     0.6209486165
C      1.5212502086     0.0192898127     0.7050133160
H     -1.0118847825     2.1858322129     0.4929026304
H      1.4748777000     2.1710164866     0.6062601499
N      3.0059210787     0.0170169848     0.7828124778
O      3.5479636398    -0.9312049769     0.2833044405
O      3.4952643757     0.9693166176     1.3266783615
C     -0.4704840321    -1.2286279710     0.7398877622
H     -1.0200575242    -2.1602194597     0.7822071037
C      0.8870137798    -1.2190490871     0.7407910421
H      1.4724887161    -2.1237869299     0.7749292406
C     -1.2486371523     0.0131550232     0.6314835604
H     -1.9189962556     0.0852223578     1.5024705055
Br    -2.3921268305    -0.1733447565    -0.9011321637
15
attempt 4 | |g_proj| = 2.945e-03 | E = -3010.3298684011 Ha
C     -0.4660273005     1.2614325254     0.5800307838
C      0.8862324096     1.2636622827     0.6220767106
C      1.5202376182     0.0195024843     0.7037368202
H     -1.0134673855     2.1885602878     0.4950152917
H      1.4731994902     2.1699993053     0.6089054529
N      3.0061510767     0.0170254528     0.7803698894
O      3.5466040892    -0.9343881784     0.2846496701
O      3.4960219322     0.9719484542     1.3201588310
C     -0.4712861086    -1.2307863398     0.7445831439
H     -1.0213859087    -2.1635252237     0.7840324210
C      0.8857567530    -1.2192377481     0.7399350536
H      1.4715123882    -2.1224772294     0.7758555871
C     -1.2445370641     0.0130450724     0.6344643556
H     -1.9190293185     0.0842633683     1.4989006662
Br    -2.3840633178    -0.1715040340    -0.9072749318
15
attempt 5 | |g_proj| = 2.367e-03 | E = -3010.3298801973 Ha
C     -0.4658921582     1.2609792967     0.5808926957
C      0.8866572992     1.2638561792     0.6229276495
C      1.5197833886     0.0194832869     0.7037209980
H     -1.0136631938     2.1878609183     0.4967105092
H      1.4735281268     2.1708969745     0.6099368212
N      3.0052267971     0.0169728211     0.7791643705
O      3.5459375306    -0.9350853985     0.2855397878
O      3.4962769206     0.9723369030     1.3163510347
C     -0.4712541822    -1.2304074868     0.7439037999
H     -1.0211806513    -2.1628606111     0.7856947403
C      0.8860414790    -1.2193555501     0.7409453474
H      1.4721503412    -2.1231178418     0.7759238533
C     -1.2470252950     0.0128445949     0.6331735010
H     -1.9216626359     0.0841024337     1.4993323077
Br    -2.3790044095    -0.1709860400    -0.9087776662
15
attempt 6 | |g_proj| = 2.014e-03 | E = -3010.3298816433 Ha
C     -0.4661734153     1.2609597826     0.5815117548
C      0.8862261759     1.2640245473     0.6233160627
C      1.5197628678     0.0194855515     0.7037788308
H     -1.0137750789     2.1877559799     0.4976055827
H      1.4733682460     2.1708299620     0.6105500133
N      3.0054522409     0.0169007559     0.7786054339
O      3.5454475780    -0.9361283884     0.2856261879
O      3.4963983211     0.9732534064     1.3145334182
C     -0.4714418879    -1.2303769550     0.7445255033
H     -1.0211957695    -2.1628400297     0.7863374398
C      0.8857371370    -1.2194466549     0.7409594446
H      1.4720740910    -2.1229124580     0.7760861671
C     -1.2460118705     0.0129966278     0.6347724636
H     -1.9224571565     0.0838482961     1.4984792726
Br    -2.3774921183    -0.1708299434    -0.9112478207
