15
ortho_th63_ph234 | OPTIMIZED | |g_proj|=3.880e-03 | E=-3010.3318913997 Ha
C     -1.7805028723     1.9528418461     0.6469740345
C     -0.3607523574     1.9776089665     0.6688722580
C      0.3109450022     0.8163962557     0.6598455698
C     -2.5047188890     0.7734242318     0.6501399575
H     -2.3139077913     2.8959321583     0.6559020842
H      0.1635063731     2.9157907556     0.7193050383
H     -3.5816806202     0.7970541582     0.6271173828
N      1.7882914510     0.8442395559     0.7256822605
O      2.3684711287     0.0361380842     0.0492914768
O      2.2561418026     1.6666510466     1.4650815853
C     -1.8216696423    -0.4027442578     0.7683126928
H     -2.3520469936    -1.3304348724     0.8999289017
C     -0.3596325392    -0.4915606349     0.7128743795
H      0.0720337442    -1.1268027793     1.4852621188
Br    -0.2379787012    -1.5400577599    -0.9448617488
