15
attempt 1 | |g_proj| = 3.228e-04 | E = -3010.3544249349 Ha
C     -0.9133490006     2.0245052020     0.7549419162
C      0.4844031344     1.9574144354     0.7569790841
C      1.1602024107     0.7301786908     0.6684383944
C      0.4956302518    -0.4411848180     0.5734097357
C     -1.6238646810     0.8687553144     0.6752059615
H     -1.4049102754     2.9842650225     0.8084843535
H      1.0817724981     2.8610580807     0.8163469542
H      1.0317127489    -1.3793029571     0.5035828084
H     -2.7057424302     0.8794703019     0.6720218192
N      2.6465100073     0.7459766907     0.6432854376
O      3.1847813875    -0.3257666072     0.6969573018
O      3.1610068390     1.8325275319     0.5881593764
C     -0.9716588736    -0.4457750371     0.6158977845
H     -1.2517949825    -1.0099633332     1.5121378689
Br    -1.7665323035    -1.4805595337    -0.8143911039
