15
meta_th54_ph234 | OPTIMIZED | |g_proj|=5.330e-03 | E=-3010.3383880165 Ha
C     -0.9067327813     2.0354088070     0.7040133034
C      0.4826216166     1.9473964301     0.7914040871
C      1.1537909616     0.7301900187     0.6480288826
C      0.4924534580    -0.4353434409     0.4809043734
C     -1.6234345448     0.8920752787     0.5349105350
H     -1.3975653479     2.9954752466     0.7592165290
H      1.0743661619     2.8365164833     0.9554199622
H      1.0198897525    -1.3763359919     0.3772565026
H     -2.7038645008     0.9160895407     0.4858197516
N      2.6350078889     0.7317114720     0.6524598649
O      3.1731932090    -0.2339948739     0.1844779962
O      3.1505230156     1.6968069201     1.1475143843
C     -0.9714448570    -0.4262376653     0.5769266934
H     -1.1387423073    -0.7181765486     1.6279522225
Br    -1.8318949868    -1.7899826664    -0.4548473690
