15
attempt 1 | |g_proj| = 9.132e-05 | E = -3010.3553862020 Ha
C     -0.9176664228     2.0200092503     0.7606583912
C      0.4802234179     1.9559630676     0.7286713179
C      1.1597476772     0.7289691302     0.6652120655
C      0.4971184129    -0.4451700149     0.6004673309
C     -1.6276202237     0.8613965632     0.7171394903
H     -1.4110325895     2.9793577965     0.8132823301
H      1.0773734143     2.8616070680     0.7490981112
H      1.0357311430    -1.3832231901     0.5431807381
H     -2.7104210899     0.8683670275     0.7373314809
N      2.6464874997     0.7472911430     0.6441596407
O      3.1896588849    -0.3193188036     0.7412427782
O      3.1587102712     1.8318420463     0.5444335338
C     -0.9722199539    -0.4520049137     0.6307422766
H     -1.2803557160    -1.0651880270     1.4831539271
Br    -1.7175679933    -1.3882991546    -0.8873157163
