15
attempt 1 | |g_proj| = 5.027e-03 | E = -3010.3271472945 Ha
C     -1.7798599139     1.9155796767     0.7429442465
C     -0.3729607207     1.9771746056     0.7316411160
C      0.2969284548     0.8113494019     0.7446661623
C     -2.5142054029     0.7247684368     0.7923311894
H     -2.3246814067     2.8482433960     0.7264125018
H      0.1524947839     2.9188017170     0.7273485902
H     -3.5925678967     0.7478778955     0.8481246092
N      1.7711914371     0.7852266879     0.8052979038
O      2.2231597887    -0.0096862339     1.5902487548
O      2.3559211159     1.5444200814     0.0841974852
C     -1.8394298336    -0.4480033794     0.7413500476
H     -2.3712637309    -1.3881956700     0.7054895369
C     -0.3729213978    -0.4876847262     0.6029163767
H      0.0921296971    -1.2494765571     1.2270675472
Br    -0.0774358793    -0.9059185780    -1.2803080763
15
attempt 2 | |g_proj| = 2.008e-03 | E = -3010.3273345718 Ha
C     -1.7837479914     1.9220963902     0.7415961538
C     -0.3771090795     1.9763765972     0.7331020002
C      0.2950073490     0.8104659857     0.7517059945
C     -2.5134932652     0.7294996971     0.7963267205
H     -2.3297770384     2.8558665155     0.7200150321
H      0.1497541280     2.9165212406     0.7261511275
H     -3.5925500225     0.7522994756     0.8450746510
N      1.7662270193     0.7830928950     0.8107372151
O      2.2194173850    -0.0065397797     1.6005005961
O      2.3485671160     1.5354119646     0.0807864983
C     -1.8346681242    -0.4428591316     0.7479037776
H     -2.3576952793    -1.3863015165     0.7178037444
C     -0.3691915088    -0.4891316810     0.6000322956
H      0.1014298578    -1.2665889844     1.2001910388
Br    -0.0756714548    -0.9057329095    -1.2821988496
