15
attempt 1 | |g_proj| = 1.792e-03 | E = -3010.3200429810 Ha
C     -0.8938766889     2.0242585142     0.6216852911
C      0.4918981157     1.9368905478     0.7160580098
C      1.1638585242     0.7129251419     0.6147201203
C      0.4871220617    -0.4395134760     0.4661357727
C     -1.6274630377     0.8805927410     0.5463299294
H     -1.3795825262     2.9838407748     0.6218262650
H      1.0841996145     2.8310550483     0.8463065978
H      1.0040921127    -1.3800490670     0.3484063939
H     -2.7103202742     0.9087915841     0.5292068865
N      2.6354204065     0.7331314292     0.6767366343
O      3.2283264763     0.2385600676    -0.2421756445
O      3.0856803650     1.2585052968     1.6623519155
C     -0.9737805251    -0.4299546843     0.6215586315
H     -1.0734437898    -0.6332652628     1.7107545237
Br    -1.9139641037    -1.8241696733    -0.2684436350
