15
attempt 1 | |g_proj| = 2.678e-04 | E = -3010.3488412826 Ha
C     -0.9273023928     2.0237170463     0.7675846969
C      0.4706674147     1.9602803611     0.6862084128
C      1.1496918665     0.7332978221     0.6607685214
C      0.4875805181    -0.4412094439     0.6694578740
C     -1.6366462017     0.8644769938     0.7656845406
H     -1.4189485112     2.9846610500     0.8184810045
H      1.0637253369     2.8681292251     0.6536283918
H      1.0270214074    -1.3800821125     0.6355366748
H     -2.7179883528     0.8738366377     0.8108321272
N      2.6358042471     0.7310764373     0.6295177712
O      3.1601430158    -0.3495831491     0.6171635652
O      3.1631542140     1.8115965231     0.6021137560
C     -0.9817323315    -0.4509840589     0.6673682504
H     -1.3578752939    -1.1042569435     1.4598266592
Br    -1.5091282240    -1.3233574748    -0.9727146209
