15
attempt 1 | |g_proj| = 3.154e-03 | E = -3010.3354854360 Ha
C     -0.9336663526     2.0132281660     0.7867049218
C      0.4586415609     1.9425118521     0.6534054211
C      1.1405529138     0.7179390595     0.6799345397
C      0.4861205401    -0.4576031053     0.7541483818
C     -1.6350041699     0.8521448914     0.8483478331
H     -1.4244530028     2.9759163560     0.8169601365
H      1.0489824761     2.8456058392     0.5489441427
H      1.0249000841    -1.3970700769     0.7500532976
H     -2.7134381748     0.8565038133     0.9123991640
N      2.6246062626     0.7225179022     0.6158365046
O      3.1670666457    -0.3360479355     0.7828754563
O      3.1268641605     1.7874426800     0.3729365548
C     -0.9835574846    -0.4629050338     0.7027203047
H     -1.4188295298    -1.2162689350     1.3597930382
Br    -1.3606192155    -1.0423165549    -1.1136020674
15
attempt 2 | |g_proj| = 1.686e-03 | E = -3010.3355086900 Ha
C     -0.9338181124     2.0119253177     0.7859308335
C      0.4583442649     1.9415770131     0.6555732375
C      1.1404786295     0.7188718626     0.6801781399
C      0.4867879627    -0.4579022693     0.7518418546
C     -1.6361354700     0.8521885868     0.8456136473
H     -1.4242930257     2.9739888393     0.8194138778
H      1.0467017541     2.8447672779     0.5473179623
H      1.0262306905    -1.3977449236     0.7514765947
H     -2.7145862294     0.8592284720     0.9154715861
N      2.6235689066     0.7237480492     0.6156911988
O      3.1625470355    -0.3363335476     0.7827572501
O      3.1299434520     1.7860603684     0.3716617606
C     -0.9839284323    -0.4634276108     0.7007865885
H     -1.4188913997    -1.2136487707     1.3627844815
Br    -1.3547833113    -1.0416997420    -1.1150413792
