15
para_th36_ph144 | OPTIMIZED | |g_proj|=1.784e-03 | E=-3010.3497698353 Ha
C     -0.4730142671     1.2395290598     0.5724595939
C      0.8800245238     1.2523638039     0.6900961845
C      1.5284189571     0.0183236369     0.7355359622
H     -1.0343915136     2.1631111264     0.5470432734
H      1.4562034567     2.1659409630     0.7150244232
N      3.0192714845     0.0415685397     0.8466651940
O      3.5256573610    -0.9607433616     1.2736276413
O      3.5507073628     1.0657381041     0.5121352117
C     -0.4458049964    -1.2535789345     0.5110051658
H     -0.9823810686    -2.1910418486     0.4294464026
C      0.9074483883    -1.2282816954     0.6619128946
H      1.5039282257    -2.1268863144     0.6947179960
C     -1.2292304746    -0.0162264312     0.5658712716
H     -1.7068657267    -0.0639987173     1.5535927816
Br    -2.7340524329     0.0417025469    -0.6436943411
