15
attempt 1 | |g_proj| = 9.982e-04 | E = -3010.3385179848 Ha
C     -0.4821353651     1.2194128937     0.7961535937
C      0.8701432686     1.2411396541     0.7822560780
C      1.5342918068     0.0121955940     0.7174004597
H     -1.0467272640     2.1349392367     0.8696882641
H      1.4384579264     2.1543027885     0.8226877100
N      3.0016565072     0.0381629784     0.7263682535
O      3.5168550605    -0.5304657692     1.6491241340
O      3.5048015530     0.6275582787    -0.1899510420
C     -0.4495927184    -1.2525122938     0.5930644110
H     -0.9885209206    -2.1831104216     0.5093453295
C      0.9022130042    -1.2377813444     0.6433898297
H      1.4975542544    -2.1350080531     0.6184895508
C     -1.2463800913    -0.0235528896     0.6649302244
H     -2.0071328425    -0.1166456239     1.4446608087
Br    -2.2795649292     0.1988854493    -0.9821679874
