15
attempt 1 | |g_proj| = 5.038e-03 | E = -3010.3306092792 Ha
C     -1.7743496320     1.9541174773     0.6512099901
C     -0.3635403746     1.9751381729     0.6816408417
C      0.3063125144     0.8090552327     0.6718003410
C     -2.5151811673     0.7762915463     0.6864206793
H     -2.3027194241     2.8970894277     0.5921748568
H      0.1649169231     2.9113430048     0.6978868308
H     -3.5925264574     0.8124029135     0.6665134166
N      1.7830295502     0.8379520538     0.6950034593
O      2.3405125613     0.1887557434    -0.1481290943
O      2.2665323837     1.5081268207     1.5680127409
C     -1.8422484649    -0.3986669076     0.7666250913
H     -2.3807923116    -1.3264764424     0.8534464577
C     -0.3765556385    -0.4929178733     0.7266583582
H      0.0114611843    -1.0910419281     1.5505961903
Br    -0.0783525552    -1.5766924824    -0.8701321634
15
attempt 2 | |g_proj| = 3.288e-03 | E = -3010.3306446551 Ha
C     -1.7735499486     1.9546133967     0.6477351046
C     -0.3639612701     1.9779015513     0.6801062242
C      0.3069930717     0.8110517338     0.6720631741
C     -2.5168328939     0.7775130785     0.6832580100
H     -2.3019130701     2.8968631338     0.5983933929
H      0.1683764710     2.9130586010     0.6982583831
H     -3.5960536981     0.8111517735     0.6671265947
N      1.7824337621     0.8370600317     0.6959499682
O      2.3442451583     0.1935096203    -0.1484529786
O      2.2653285744     1.5058465777     1.5696892756
C     -1.8435469559    -0.3983055307     0.7666468032
H     -2.3793286623    -1.3291881886     0.8530531141
C     -0.3755684423    -0.4928577270     0.7243985102
H      0.0129483213    -1.0879501594     1.5499076246
Br    -0.0830713300    -1.5857911286    -0.8684052000
