15
para_th36_ph270 | OPTIMIZED | |g_proj|=1.441e-03 | E=-3010.3467140900 Ha
C     -0.4615392503     1.2492741440     0.4642960987
C      0.8915335911     1.2563919831     0.5901510851
C      1.5349741706     0.0214726088     0.7128452316
H     -1.0150647852     2.1707799070     0.3535718265
H      1.4737672275     2.1651039680     0.6002914065
N      3.0166869316     0.0258512159     0.8770628084
O      3.5893035149    -0.9430869371     0.4572648570
O      3.4788749556     0.9966994457     1.4130652315
C     -0.4540943134    -1.2335560663     0.6104595784
H     -1.0015992342    -2.1662606659     0.6115704146
C      0.9014607710    -1.2211061090     0.6960978577
H      1.4941127963    -2.1215368294     0.7437768700
C     -1.2307212021     0.0062694293     0.5671380280
H     -1.6940044639     0.0891686309     1.5661311123
Br    -2.7577713924    -0.1479442463    -0.5982827057
