15
attempt 1 | |g_proj| = 4.590e-03 | E = -3010.3418943457 Ha
C     -0.4676476756     1.2485409729     0.4808787499
C      0.8868566092     1.2572404049     0.5991907180
C      1.5285257673     0.0225157203     0.7067410001
H     -1.0208248479     2.1726367669     0.3769644118
H      1.4646364886     2.1707839717     0.6176470559
N      3.0139594778     0.0308705826     0.8880511554
O      3.5800614941    -0.9909317299     0.6063247801
O      3.4822480038     1.0631868318     1.2847535095
C     -0.4538974843    -1.2442219611     0.5885941907
H     -0.9966084101    -2.1813993616     0.5683549288
C      0.9034361981    -1.2210463763     0.6756094297
H      1.4963707371    -2.1216383584     0.7238042506
C     -1.2307691887    -0.0029729233     0.5497959350
H     -1.6554518056     0.0590694232     1.5745472495
Br    -2.7649760397    -0.1151134847    -0.5758176548
15
attempt 2 | |g_proj| = 2.569e-03 | E = -3010.3419058366 Ha
C     -0.4673281629     1.2483087193     0.4806643270
C      0.8864023432     1.2576276259     0.5994661401
C      1.5288266140     0.0221331261     0.7069019469
H     -1.0208827919     2.1720456513     0.3781960935
H      1.4645053990     2.1704737301     0.6176664973
N      3.0134485539     0.0314178220     0.8867770292
O      3.5797618684    -0.9909827748     0.6075990110
O      3.4825035596     1.0636894532     1.2832579027
C     -0.4541089267    -1.2439149243     0.5874536823
H     -0.9966874052    -2.1814962221     0.5694250486
C      0.9030202813    -1.2217868793     0.6760222689
H      1.4965480382    -2.1217522078     0.7236698986
C     -1.2293118335    -0.0023695323     0.5528997571
H     -1.6559214484     0.0584951616     1.5741698320
Br    -2.7648567613    -0.1143682700    -0.5787297204
15
attempt 3 | |g_proj| = 2.455e-03 | E = -3010.3419085196 Ha
C     -0.4670248010     1.2484310618     0.4814046720
C      0.8867979459     1.2572117741     0.5995669968
C      1.5282253362     0.0221017565     0.7067746326
H     -1.0211331748     2.1717061572     0.3795401890
H      1.4645299839     2.1704100778     0.6176438635
N      3.0134911273     0.0315630018     0.8861672654
O      3.5793491990    -0.9911966861     0.6087982631
O      3.4825435524     1.0646167484     1.2811058357
C     -0.4539167967    -1.2442234262     0.5875011976
H     -0.9968852127    -2.1813808112     0.5704455885
C      0.9031673988    -1.2218343079     0.6759827284
H      1.4967143385    -2.1221059220     0.7235190739
C     -1.2299295967    -0.0023706615     0.5526089327
H     -1.6572780025     0.0578769065     1.5751966972
Br    -2.7627319662    -0.1132851902    -0.5808162169
15
attempt 4 | |g_proj| = 2.249e-03 | E = -3010.3419094559 Ha
C     -0.4671829040     1.2481566672     0.4819340279
C      0.8865501881     1.2574820520     0.5996235220
C      1.5286238909     0.0219085998     0.7066905845
H     -1.0212489374     2.1716396405     0.3804410799
H      1.4646111822     2.1702830633     0.6176485624
N      3.0132559072     0.0318013445     0.8859040381
O      3.5792436242    -0.9914646564     0.6095514696
O      3.4825961269     1.0651396058     1.2795388067
C     -0.4541282224    -1.2440454498     0.5876491668
H     -0.9970220863    -2.1814505555     0.5710669953
C      0.9030712399    -1.2222011548     0.6759214036
H      1.4967622734    -2.1221606232     0.7234323016
C     -1.2297123072    -0.0023910188     0.5535942086
H     -1.6578629435     0.0574253676     1.5749379004
Br    -2.7616376970    -0.1126024031    -0.5824943433
15
attempt 5 | |g_proj| = 2.238e-03 | E = -3010.3419102655 Ha
C     -0.4671842345     1.2482840290     0.4823335750
C      0.8866453827     1.2571744805     0.5996821270
C      1.5283139704     0.0219611635     0.7065867998
H     -1.0213240731     2.1715261990     0.3810295012
H      1.4646564940     2.1702967353     0.6176375367
N      3.0133799002     0.0317072721     0.8856864614
O      3.5790895134    -0.9914975317     0.6100716018
O      3.4826298407     1.0655370575     1.2785477636
C     -0.4540728935    -1.2442451826     0.5878494141
H     -0.9970969196    -2.1814005249     0.5714495593
C      0.9030914509    -1.2220852380     0.6758629622
H      1.4968024853    -2.1223053377     0.7233721292
C     -1.2298319876    -0.0024071342     0.5536622802
H     -1.6584266094     0.0571485110     1.5750937118
Br    -2.7607529814    -0.1121740198    -0.5834256945
15
attempt 6 | |g_proj| = 2.150e-03 | E = -3010.3419106357 Ha
C     -0.4671706825     1.2481958288     0.4825522793
C      0.8866077004     1.2573118509     0.5997035455
C      1.5283773152     0.0218836547     0.7065554606
H     -1.0213835381     2.1715330537     0.3813415967
H      1.4646518861     2.1702146813     0.6176347301
N      3.0132831575     0.0319444138     0.8856274927
O      3.5791258536    -0.9917020084     0.6103072834
O      3.4826391081     1.0656631266     1.2779880095
C     -0.4540858479    -1.2442100022     0.5879411449
H     -0.9971516578    -2.1814299394     0.5716540260
C      0.9030822967    -1.2222096332     0.6758414096
H      1.4967936502    -2.1223005730     0.7233365030
C     -1.2298294119    -0.0024203481     0.5538058674
H     -1.6587066227     0.0570012354     1.5751006222
Br    -2.7603138646    -0.1119548618    -0.5839502376
15
attempt 1 | |g_proj| = 4.589e-03 | E = -3010.3418943493 Ha
C     -0.4676482549     1.2485410435     0.4808896270
C      0.8868547913     1.2572409887     0.5991925152
C      1.5285215145     0.0225138187     0.7067355669
H     -1.0208236399     2.1726386866     0.3769759057
H      1.4646321878     2.1707858079     0.6176464182
N      3.0139526057     0.0308710032     0.8880447298
O      3.5800577086    -0.9909353236     0.6063385841
O      3.4822368971     1.0631964958     1.2847284717
C     -0.4538990106    -1.2442268055     0.5886011314
H     -0.9966082272    -2.1814064711     0.5683657589
C      0.9034340114    -1.2210495931     0.6756081895
H      1.4963687673    -2.1216409033     0.7238022392
C     -1.2307655929    -0.0029745416     0.5498028712
H     -1.6554480533     0.0590610162     1.5745523347
Br    -2.7649463809    -0.1150947435    -0.5758446336
15
attempt 2 | |g_proj| = 2.567e-03 | E = -3010.3419058639 Ha
C     -0.4673285744     1.2483088816     0.4806745038
C      0.8864015754     1.2576274992     0.5994674774
C      1.5288225743     0.0221317389     0.7068972652
H     -1.0208821736     2.1720472581     0.3782064801
H      1.4645021435     2.1704753142     0.6176659426
N      3.0134432823     0.0314177784     0.8867719687
O      3.5797584264    -0.9909858773     0.6076109856
O      3.4824945775     1.0636983567     1.2832354899
C     -0.4541098365    -1.2439192808     0.5874603447
H     -0.9966875212    -2.1815017458     0.5694344959
C      0.9030189649    -1.2217892210     0.6760208217
H      1.4965465573    -2.1217546185     0.7236681575
C     -1.2293109950    -0.0023714285     0.5529028264
H     -1.6559200891     0.0584878688     1.5741754249
Br    -2.7648295841    -0.1143520451    -0.5787524700
