15
meta_th27_ph144 | OPTIMIZED | |g_proj|=1.833e-04 | E=-3010.3518318747 Ha
C     -0.9158306246     2.0159393279     0.7591265209
C      0.4809134894     1.9527317689     0.7156836338
C      1.1598797548     0.7240177639     0.6662376143
C      0.4971564763    -0.4500941717     0.6198495972
C     -1.6241304780     0.8562726346     0.7419743085
H     -1.4084900765     2.9749825005     0.8053740970
H      1.0772032492     2.8591427980     0.7171785945
H      1.0347595873    -1.3886186479     0.5756639648
H     -2.7058210837     0.8623880129     0.7767068195
N      2.6449934056     0.7459120503     0.6440934606
O      3.1903615571    -0.3096677530     0.8163295550
O      3.1536133605     1.8234482265     0.4731001839
C     -0.9721281041    -0.4574327723     0.6445832133
H     -1.3004307040    -1.1098973325     1.4579424571
Br    -1.7038830798    -1.2975254267    -0.9423863325
