15
meta_th54_ph90 | OPTIMIZED | |g_proj|=1.083e-04 | E=-3010.3296660710 Ha
C     -0.9207817093     1.9814600157     0.8260660044
C      0.4597638109     1.9155228872     0.6499546438
C      1.1514510756     0.6940572067     0.6885919284
C      0.4951603702    -0.4759980745     0.7586074770
C     -1.6312783095     0.8228706054     0.8951322830
H     -1.4161247215     2.9356174628     0.8815250589
H      1.0407775551     2.8169147962     0.5023620805
H      1.0330693261    -1.4128862734     0.7824630935
H     -2.7110341078     0.8302106303     0.9860771751
N      2.6266505594     0.7263608872     0.6247878549
O      3.2086057198    -0.1024945929     1.2705383596
O      3.0934625090     1.5846920825    -0.0786219394
C     -0.9778948107    -0.4786129270     0.6735338187
H     -1.4332580208    -1.2938160609     1.2304534358
Br    -1.4104025265    -0.7422997043    -1.2200136227
