15
meta_th63_ph36 | OPTIMIZED | |g_proj|=5.230e-04 | E=-3010.3235826922 Ha
C     -0.9382532458     2.0008557412     0.8264822643
C      0.4487547565     1.9272334835     0.6632015110
C      1.1347087803     0.7120810460     0.7078825708
C      0.4879225480    -0.4671533518     0.7983540782
C     -1.6375494595     0.8419761501     0.8864021866
H     -1.4337567580     2.9592163605     0.8746398730
H      1.0263070421     2.8285735090     0.5149775547
H      1.0304039111    -1.4049509884     0.8177408009
H     -2.7148424646     0.8518367434     0.9659291794
N      2.6102541231     0.7103586538     0.5970389469
O      3.1788026153    -0.2435996086     1.0560606798
O      3.0775777396     1.6525629946     0.0163552438
C     -0.9799949255    -0.4665636023     0.7007438979
H     -1.4505970119    -1.2714930768     1.2575511157
Br    -1.2315709354    -0.8293351311    -1.2119022691
