15
ortho_th18_ph216 | OPTIMIZED | |g_proj|=4.842e-04 | E=-3010.3507991109 Ha
C     -1.7926908170     1.9524414297     0.7246793763
C     -0.3738650219     1.9890946031     0.7190851987
C      0.2938763037     0.8239202266     0.6698541243
C     -2.5192330313     0.7641565638     0.7157962316
H     -2.3269820000     2.8959846275     0.7489522766
H      0.1628643368     2.9263817948     0.7671680455
H     -3.5994016723     0.7842296636     0.7321292637
N      1.7830642535     0.8414387562     0.7224353353
O      2.3238176959    -0.2324230964     0.6533181893
O      2.2967157765     1.9198657818     0.8494940087
C     -1.8373446333    -0.4188189400     0.7138024452
H     -2.3627949123    -1.3649176262     0.7371759148
C     -0.3715577990    -0.4858665327     0.6416170970
H      0.0532338807    -1.1400394242     1.4023041745
Br    -0.0832032953    -1.4709710359    -1.0080836528
