15
meta_th18_ph234 | OPTIMIZED | |g_proj|=1.301e-03 | E=-3010.3619706988 Ha
C     -0.9152172169     2.0314918074     0.7396111424
C      0.4818005054     1.9583797840     0.7940493815
C      1.1576954668     0.7393665931     0.6502549040
C      0.4931864646    -0.4269974894     0.4808732304
C     -1.6310231425     0.8833630330     0.5773943278
H     -1.4083809163     2.9909423248     0.8127103477
H      1.0782854496     2.8528869887     0.9368653640
H      1.0317317922    -1.3617533900     0.3729371353
H     -2.7137792275     0.8979014857     0.5400994019
N      2.6467894039     0.7415997805     0.6563980753
O      3.1794808364    -0.3161048638     0.4536521786
O      3.1706358205     1.8025316626     0.8730250412
C     -0.9710575980    -0.4287639650     0.5590110810
H     -1.1591647851    -0.8143187852     1.5711677644
Br    -1.8328161151    -1.7489259544    -0.5465916567
