15
attempt 1 | |g_proj| = 1.931e-03 | E = -3010.3528180967 Ha
C     -0.9093172632     2.0317773876     0.7350771492
C      0.4850389900     1.9526820963     0.8024627827
C      1.1558277411     0.7323748586     0.6635368386
C      0.4908437798    -0.4340471332     0.5012505229
C     -1.6238457430     0.8872893672     0.5622115507
H     -1.3940206391     2.9943148628     0.8039159938
H      1.0854017555     2.8439763760     0.9424712805
H      1.0209126415    -1.3740840773     0.4032979827
H     -2.7039216985     0.9110273782     0.5118590351
N      2.6424375668     0.7429427274     0.6464748061
O      3.1714395894    -0.3098899148     0.4162769797
O      3.1632660606     1.7999924905     0.8870388116
C     -0.9739867790    -0.4300698519     0.5702054352
H     -1.1731754539    -0.8086124384     1.5835144606
Br    -1.8287338113    -1.7380751234    -0.5581359147
