15
attempt 1 | |g_proj| = 6.382e-03 | E = -3010.3438774953 Ha
C     -0.4696399074     1.2412500015     0.6088772848
C      0.8805678628     1.2598517051     0.7202768757
C      1.5219751346     0.0196709312     0.7545739198
H     -1.0234074225     2.1683765414     0.5922528917
H      1.4532248805     2.1779532390     0.7334398035
N      3.0084045662     0.0350725802     0.8213631507
O      3.5226579845    -0.9477159714     1.2822869351
O      3.5295722923     1.0327754462     0.4004278661
C     -0.4490377949    -1.2551906714     0.5359102046
H     -0.9739389436    -2.1983839720     0.4426764868
C      0.9016860498    -1.2272587153     0.6825500074
H      1.4949888171    -2.1267202842     0.7003069739
C     -1.2287495532    -0.0152148705     0.5780956862
H     -1.7513362269    -0.0632762817     1.5418697081
Br    -2.6510484669     0.0463308000    -0.7294681492
15
attempt 2 | |g_proj| = 2.392e-03 | E = -3010.3439996413 Ha
C     -0.4725668007     1.2399857898     0.6031847302
C      0.8787030105     1.2527371779     0.7159513560
C      1.5270362256     0.0176590649     0.7429463178
H     -1.0334195517     2.1632194720     0.5825445131
H      1.4556134585     2.1649672735     0.7394444364
N      3.0181917698     0.0372691101     0.8152102444
O      3.5251360064    -0.9435957214     1.2879620404
O      3.5469857460     1.0378872751     0.4124553704
C     -0.4476880935    -1.2525264425     0.5286119809
H     -0.9849251360    -2.1890017108     0.4421509778
C      0.9046896415    -1.2276693528     0.6788204268
H      1.5017053897    -2.1245756619     0.7073632241
C     -1.2311915077    -0.0149344131     0.5819660124
H     -1.7591510614    -0.0665191374     1.5429291439
Br    -2.6631998210     0.0526177548    -0.7161011247
15
attempt 3 | |g_proj| = 1.597e-03 | E = -3010.3440048236 Ha
C     -0.4723248804     1.2398129870     0.6034269935
C      0.8790592994     1.2533535826     0.7148923344
C      1.5268917249     0.0178129479     0.7425520827
H     -1.0329339124     2.1630573835     0.5818548704
H      1.4561338193     2.1659117465     0.7391806810
N      3.0180307694     0.0376777379     0.8169651406
O      3.5254963574    -0.9438103052     1.2879112613
O      3.5466896410     1.0380900192     0.4135071183
C     -0.4479636970    -1.2528778268     0.5295163500
H     -0.9849693230    -2.1894385964     0.4420373057
C      0.9046904017    -1.2278543391     0.6774681140
H      1.5014632148    -2.1251842173     0.7072531953
C     -1.2312042426    -0.0150620951     0.5812196074
H     -1.7579029135    -0.0669682363     1.5425391344
Br    -2.6652369792     0.0529996900    -0.7148845348
