15
para_th45_ph144 | OPTIMIZED | |g_proj|=1.597e-03 | E=-3010.3440048236 Ha
C     -0.4723248804     1.2398129870     0.6034269935
C      0.8790592994     1.2533535826     0.7148923344
C      1.5268917249     0.0178129479     0.7425520827
H     -1.0329339124     2.1630573835     0.5818548704
H      1.4561338193     2.1659117465     0.7391806810
N      3.0180307694     0.0376777379     0.8169651406
O      3.5254963574    -0.9438103052     1.2879112613
O      3.5466896410     1.0380900192     0.4135071183
C     -0.4479636970    -1.2528778268     0.5295163500
H     -0.9849693230    -2.1894385964     0.4420373057
C      0.9046904017    -1.2278543391     0.6774681140
H      1.5014632148    -2.1251842173     0.7072531953
C     -1.2312042426    -0.0150620951     0.5812196074
H     -1.7579029135    -0.0669682363     1.5425391344
Br    -2.6652369792     0.0529996900    -0.7148845348
