15
attempt 1 | |g_proj| = 6.513e-04 | E = -3010.3391263197 Ha
C     -1.7857516099     1.9504257077     0.6861799186
C     -0.3633729459     1.9856518731     0.7089591532
C      0.2984814617     0.8212510109     0.6949541736
C     -2.5055453137     0.7634291499     0.6933520898
H     -2.3195744320     2.8942475980     0.6758583533
H      0.1678673415     2.9238245662     0.7560077017
H     -3.5827483756     0.7817343424     0.6925993149
N      1.7826340344     0.8342054191     0.7548591923
O      2.3194786358    -0.2366383750     0.6302450725
O      2.2913741805     1.9025732923     0.9548382373
C     -1.8224156361    -0.4185353966     0.7585677210
H     -2.3462846014    -1.3615818270     0.8251309925
C     -0.3610643483    -0.4893797968     0.6665915247
H      0.0991088370    -1.1891086917     1.3640204429
Br    -0.2256881448    -1.3776221041    -1.0724358827
