15
meta_th9_ph198 | OPTIMIZED | |g_proj|=1.541e-04 | E=-3010.3614038438 Ha
C     -0.9162037124     2.0286986859     0.7527233229
C      0.4820726514     1.9605297712     0.7769837317
C      1.1587892185     0.7385997259     0.6547653541
C      0.4946807601    -0.4304916244     0.5123419388
C     -1.6302800172     0.8768892814     0.6196872303
H     -1.4096904842     2.9876412388     0.8270675370
H      1.0795437481     2.8598251890     0.8833292010
H      1.0330251261    -1.3658789202     0.4121666636
H     -2.7134451981     0.8886797885     0.5973848011
N      2.6476310979     0.7454601440     0.6532486532
O      3.1816897953    -0.3270972070     0.5666495543
O      3.1698770632     1.8251925560     0.7482236229
C     -0.9710061544    -0.4350622827     0.5733021403
H     -1.1912975580    -0.8913170277     1.5487176516
Br    -1.8072196042    -1.6600703364    -0.6551337105
