15
meta_th81_ph72 | OPTIMIZED | |g_proj|=3.180e-04 | E=-3010.3176063614 Ha
C     -0.9203881761     1.9856257492     0.8889149405
C      0.4611397694     1.9169678269     0.7363792704
C      1.1504702180     0.7002507984     0.7172586911
C      0.4917507343    -0.4692783412     0.7407095368
C     -1.6386940797     0.8322802374     0.8712053580
H     -1.4175658021     2.9373450507     0.9710927917
H      1.0362119494     2.8254002259     0.6471452252
H      1.0238324047    -1.4098479080     0.7213207179
H     -2.7202198437     0.8471074386     0.9217737753
N      2.6184301266     0.7131457739     0.5900522288
O      3.2448857071     0.1938055712     1.4741453487
O      3.0302706981     1.2329220146    -0.4140879526
C     -0.9781288684    -0.4641773536     0.6613053429
H     -1.4436349025    -1.2790401152     1.2015630428
Br    -1.3301932178    -0.7609080366    -1.2573206745
