15
attempt 1 | |g_proj| = 1.181e-04 | E = -3010.3380531104 Ha
C     -0.9002706333     2.0335275340     0.6727002766
C      0.4938267376     1.9626036991     0.7481206964
C      1.1598303176     0.7338795049     0.6337567713
C      0.4837871226    -0.4212492541     0.4826964849
C     -1.6229549362     0.8852464779     0.5635406668
H     -1.3846252853     2.9930837298     0.7074937458
H      1.0900111866     2.8577898003     0.8892067856
H      1.0106572488    -1.3549697776     0.3594408232
H     -2.7038823148     0.9028663929     0.5372591912
N      2.6356835992     0.7291235210     0.6788106457
O      3.1734428498    -0.1436032931     0.0564037282
O      3.1447129474     1.6021350572     1.3335802425
C     -0.9759544289    -0.4296239260     0.5995266362
H     -1.1573261786    -0.7458365961     1.6444900676
Br    -1.8387714895    -1.8033738409    -0.4355690250
