15
attempt 1 | |g_proj| = 9.879e-04 | E = -3010.3375644127 Ha
C     -0.4650877599     1.2383902963     0.8651031337
C      0.8867700824     1.2362228347     0.8928807212
C      1.5373244259     0.0085513175     0.6995866353
H     -1.0191310296     2.1542298613     0.9926821603
H      1.4696482851     2.1271374935     1.0524297822
N      3.0019619930    -0.0026491169     0.7222967706
O      3.4897502828     0.2465928524     1.7900726530
O      3.5293820575    -0.2689414580    -0.3213031945
C     -0.4611737450    -1.2172030720     0.5219594095
H     -1.0148388995    -2.1336937651     0.3995822724
C      0.8905078641    -1.2153157499     0.4945810954
H      1.4727259620    -2.1063111336     0.3345688086
C     -1.2443818062     0.0105122937     0.6814203426
H     -1.9815464573    -0.0892455321     1.4836608961
Br    -2.3259919537     0.1592433573    -0.9440818046
