15
attempt 1 | |g_proj| = 5.719e-03 | E = -3010.3427200378 Ha
C     -0.4689821651     1.2461360192     0.5494976908
C      0.8785497752     1.2471667287     0.7065002927
C      1.5189968508     0.0126902492     0.7620760225
H     -1.0102938214     2.1801303729     0.5202119251
H      1.4613683021     2.1554969346     0.7286631869
N      3.0095279985     0.0429661123     0.8458563979
O      3.5317937440    -0.9875029134     1.1733314482
O      3.5233848973     1.0950330710     0.5751950409
C     -0.4498700716    -1.2478415953     0.5154682384
H     -0.9867151357    -2.1825775153     0.4232275844
C      0.9002023853    -1.2322470849     0.6857355061
H      1.4858203604    -2.1383048982     0.7144308459
C     -1.2277945481    -0.0076058570     0.5456483663
H     -1.6558269762    -0.0245496841     1.5594999330
Br    -2.7442423120    -0.0114694614    -0.6399028203
15
attempt 2 | |g_proj| = 3.113e-03 | E = -3010.3428253612 Ha
C     -0.4699157556     1.2484951167     0.5486975855
C      0.8797375570     1.2501154775     0.7025494323
C      1.5217714666     0.0138391372     0.7520357618
H     -1.0214916146     2.1789473089     0.5078492631
H      1.4601415566     2.1602145911     0.7330857030
N      3.0156630070     0.0375866786     0.8410100172
O      3.5376315929    -0.9904349395     1.1766034218
O      3.5310284609     1.0921125223     0.5859602407
C     -0.4501607491    -1.2508083828     0.5102763489
H     -0.9900987345    -2.1867003139     0.4228538106
C      0.9001086717    -1.2306294695     0.6856316929
H      1.4896450113    -2.1336004864     0.7178133826
C     -1.2269259749    -0.0082781332     0.5493081367
H     -1.6629485065    -0.0298475434     1.5594199701
Br    -2.7482667015    -0.0034910851    -0.6276551038
15
attempt 3 | |g_proj| = 2.156e-03 | E = -3010.3428388873 Ha
C     -0.4698788747     1.2467071588     0.5472597154
C      0.8796484797     1.2506310825     0.7006151808
C      1.5218576945     0.0148268931     0.7520484694
H     -1.0218885494     2.1755043815     0.5040644949
H      1.4596163469     2.1613017555     0.7327786677
N      3.0162897387     0.0387750213     0.8449176995
O      3.5353180569    -0.9926782073     1.1748304283
O      3.5348613145     1.0917721709     0.5890212920
C     -0.4501984539    -1.2501151965     0.5122386564
H     -0.9888747722    -2.1855470025     0.4229184618
C      0.9008551286    -1.2300716740     0.6811822483
H      1.4912459993    -2.1326998971     0.7187663108
C     -1.2275811939    -0.0086762922     0.5491545534
H     -1.6623486892    -0.0322833851     1.5598494333
Br    -2.7530029350     0.0000736696    -0.6242059440
15
attempt 4 | |g_proj| = 1.744e-03 | E = -3010.3428403207 Ha
C     -0.4699402738     1.2466137194     0.5466895309
C      0.8797228181     1.2507494109     0.7003602297
C      1.5223327891     0.0152258546     0.7517695117
H     -1.0224099046     2.1753548175     0.5028468693
H      1.4592647396     2.1615571467     0.7324914415
N      3.0163813435     0.0382816805     0.8445057664
O      3.5350397865    -0.9931364387     1.1749056308
O      3.5353785478     1.0914827926     0.5908747530
C     -0.4497947569    -1.2502682904     0.5109288082
H     -0.9888565642    -2.1859008240     0.4233149129
C      0.9011420249    -1.2295343082     0.6815042242
H      1.4914647274    -2.1321530264     0.7185459999
C     -1.2277254062    -0.0089386839     0.5492479533
H     -1.6621074197    -0.0327380678     1.5601255207
Br    -2.7539731567     0.0009246959    -0.6226714801
