15
attempt 1 | |g_proj| = 3.472e-03 | E = -3010.3531528897 Ha
C     -0.9106184147     2.0345671960     0.7353279390
C      0.4838769293     1.9516151107     0.8041390069
C      1.1560443368     0.7320055125     0.6623640759
C      0.4914005844    -0.4337778181     0.4959902074
C     -1.6267162112     0.8902119562     0.5609836790
H     -1.3998834896     2.9966779030     0.7999833876
H      1.0822367352     2.8431198460     0.9472849370
H      1.0258321178    -1.3719807353     0.3991742147
H     -2.7076148476     0.9106616545     0.5075285899
N      2.6439057908     0.7369310737     0.6476285831
O      3.1803858470    -0.3104945746     0.4066606479
O      3.1608514327     1.7927500143     0.8967008698
C     -0.9741425714    -0.4274559297     0.5704582326
H     -1.1689662165    -0.8015526285     1.5838719754
Br    -1.8284252850    -1.7416795704    -0.5466386271
15
attempt 2 | |g_proj| = 5.535e-03 | E = -3010.3531778082 Ha
C     -0.9125669629     2.0324767857     0.7319810484
C      0.4826720811     1.9513899220     0.8055530881
C      1.1568432650     0.7323332735     0.6598696821
C      0.4909588546    -0.4327646021     0.4945528582
C     -1.6257670723     0.8878187609     0.5559945702
H     -1.3982820178     2.9955717151     0.7965778102
H      1.0812551756     2.8428255623     0.9553590759
H      1.0246010645    -1.3697770685     0.3905606059
H     -2.7056243136     0.9115292182     0.5022882018
N      2.6455094997     0.7405323001     0.6453176534
O      3.1718002078    -0.3096647483     0.3949582743
O      3.1667421142     1.7903777139     0.9152729090
C     -0.9734870620    -0.4281226756     0.5677453003
H     -1.1622715680    -0.7906218804     1.5905482793
Br    -1.8342165267    -1.7523052618    -0.5351216337
15
attempt 3 | |g_proj| = 2.935e-03 | E = -3010.3532032924 Ha
C     -0.9107857439     2.0336114699     0.7315211847
C      0.4832478451     1.9522448584     0.8061505995
C      1.1557538478     0.7337189483     0.6604462134
C      0.4916067236    -0.4319921487     0.4902402592
C     -1.6263770973     0.8893061240     0.5549210620
H     -1.3996888687     2.9952977610     0.7954899738
H      1.0802701893     2.8428092064     0.9574105337
H      1.0256777220    -1.3700721967     0.3888874991
H     -2.7073494788     0.9105945008     0.5000551233
N      2.6432066250     0.7372724715     0.6490036627
O      3.1755324018    -0.3076862621     0.3896685684
O      3.1647702734     1.7859715661     0.9181187240
C     -0.9735360701    -0.4279195734     0.5684838665
H     -1.1603516384    -0.7877395375     1.5898330805
Br    -1.8338099905    -1.7538181686    -0.5287726229
15
attempt 4 | |g_proj| = 2.209e-03 | E = -3010.3532108111 Ha
C     -0.9117787160     2.0334982780     0.7310327328
C      0.4829757982     1.9518484979     0.8066103356
C      1.1561733787     0.7327528055     0.6603444936
C      0.4912026024    -0.4322495410     0.4902457724
C     -1.6264154444     0.8891451946     0.5542720547
H     -1.3999440808     2.9957199056     0.7949266179
H      1.0804320801     2.8433161839     0.9587318976
H      1.0257188817    -1.3693394478     0.3874381295
H     -2.7068095711     0.9106448473     0.4990353800
N      2.6443855105     0.7374053454     0.6477342764
O      3.1747331661    -0.3084423063     0.3876458135
O      3.1644710161     1.7861910058     0.9216713507
C     -0.9733565811    -0.4271429604     0.5675178526
H     -1.1590211907    -0.7860639218     1.5905930439
Br    -1.8346001083    -1.7556848626    -0.5263420189
15
attempt 5 | |g_proj| = 2.038e-03 | E = -3010.3532126460 Ha
C     -0.9112533070     2.0336853964     0.7308948008
C      0.4830817112     1.9519530929     0.8068598214
C      1.1560185478     0.7334689561     0.6602595308
C      0.4914423017    -0.4319147664     0.4896789964
C     -1.6263838016     0.8893174008     0.5536455647
H     -1.4001032087     2.9957450775     0.7945284927
H      1.0799936096     2.8428101828     0.9595150277
H      1.0257792367    -1.3694015580     0.3864722196
H     -2.7070341643     0.9105751387     0.4982746243
N      2.6437617915     0.7372023004     0.6480920972
O      3.1749018587    -0.3077120757     0.3860981401
O      3.1646451391     1.7849802160     0.9233779194
C     -0.9735262402    -0.4276181165     0.5676730034
H     -1.1581098200    -0.7846752549     1.5905985434
Br    -1.8350469117    -1.7568169616    -0.5245110450
15
attempt 6 | |g_proj| = 1.903e-03 | E = -3010.3532142718 Ha
C     -0.9116510079     2.0336509067     0.7306497841
C      0.4828749788     1.9519282011     0.8070656241
C      1.1560153348     0.7330632264     0.6601331547
C      0.4913022353    -0.4319848085     0.4892459693
C     -1.6263631907     0.8892730541     0.5532536728
H     -1.4000934674     2.9957131799     0.7942130619
H      1.0800589761     2.8430115916     0.9602705537
H      1.0257952178    -1.3691109861     0.3857074437
H     -2.7069143780     0.9106100795     0.4976415041
N      2.6439973907     0.7371674615     0.6481261862
O      3.1746394448    -0.3076960925     0.3847646876
O      3.1646743225     1.7847252260     0.9250649616
C     -0.9732459998    -0.4271594363     0.5670953584
H     -1.1574811221    -0.7837730383     1.5912516438
Br    -1.8354419910    -1.7578195320    -0.5230258646
