15
ortho_th36_ph324 | OPTIMIZED | |g_proj|=2.536e-03 | E=-3010.3457520793 Ha
C     -1.7842384329     1.9591035680     0.7402487321
C     -0.3678974169     1.9851581471     0.7001460544
C      0.2907846393     0.8184372658     0.6357307662
C     -2.5183255432     0.7789188709     0.7337061104
H     -2.3084483374     2.9054095463     0.7871743343
H      0.1757781341     2.9179903347     0.7356064332
H     -3.5966896363     0.8055984328     0.7719286405
N      1.7778589439     0.8418545166     0.7235245836
O      2.3254345738    -0.2165472256     0.5643071435
O      2.2811504642     1.9122240852     0.9332755524
C     -1.8500214651    -0.4119708769     0.6750013080
H     -2.3896049699    -1.3510910880     0.6758715967
C     -0.3851353926    -0.4879807145     0.6321020795
H     -0.0156999353    -1.1154065731     1.4371326101
Br     0.0115534072    -1.5572214610    -0.9560278771
