15
attempt 1 | |g_proj| = 2.848e-03 | E = -3010.3203118629 Ha
C     -0.9367352187     2.0039563793     0.8257763158
C      0.4508664837     1.9254492848     0.6846924101
C      1.1349333301     0.7103227194     0.7207347264
C      0.4898265825    -0.4698131551     0.7959417793
C     -1.6358305756     0.8442105205     0.8745086794
H     -1.4296246477     2.9645860966     0.8672307379
H      1.0336485884     2.8235645140     0.5513611080
H      1.0360468658    -1.4057277317     0.8159455507
H     -2.7135060104     0.8543904484     0.9429827435
N      2.6088617672     0.7126207720     0.5927679383
O      3.1901514575    -0.2261202673     1.0670283292
O      3.0582472895     1.6423083922    -0.0214414245
C     -0.9782357643    -0.4670999006     0.7032956495
H     -1.4460991212    -1.2726533909     1.2607921988
Br    -1.2543843107    -0.8383957542    -1.2101591037
15
attempt 2 | |g_proj| = 3.615e-04 | E = -3010.3203929451 Ha
C     -0.9366121192     2.0025961236     0.8391499492
C      0.4511075010     1.9278110946     0.6868526228
C      1.1348257984     0.7123219191     0.7192143323
C      0.4886385825    -0.4678846194     0.7968109615
C     -1.6363033227     0.8439743518     0.8729867254
H     -1.4324525411     2.9606258617     0.8906080705
H      1.0287392274     2.8300780531     0.5496759334
H      1.0308802117    -1.4060382555     0.8087118592
H     -2.7142488280     0.8555405507     0.9332856307
N      2.6072892381     0.7094477850     0.5892705225
O      3.1898621418    -0.2108566204     1.0964663092
O      3.0568006635     1.6163344572    -0.0572958601
C     -0.9778572618    -0.4645936778     0.7006226139
H     -1.4493087282    -1.2660933891     1.2591663344
Br    -1.2331938460    -0.8416647025    -1.2140683617
