15
meta_th63_ph216 | OPTIMIZED | |g_proj|=3.266e-03 | E=-3010.3313532488 Ha
C     -0.9118492724     2.0331625478     0.7014491556
C      0.4814392268     1.9436508458     0.7764967876
C      1.1546082107     0.7269372810     0.6433075628
C      0.4911032836    -0.4396881256     0.5009367933
C     -1.6253104198     0.8903737100     0.5496277659
H     -1.4005130283     2.9948880572     0.7526747614
H      1.0755668147     2.8342420528     0.9265696382
H      1.0233154151    -1.3795524838     0.4115528953
H     -2.7045051312     0.9192291846     0.5072425066
N      2.6389206846     0.7304082004     0.6443603870
O      3.1774592638    -0.2206220423     0.1466986885
O      3.1427864540     1.6829900282     1.1750997141
C     -0.9736806179    -0.4267953602     0.5917428833
H     -1.1512377973    -0.7296849719     1.6380683820
Br    -1.8099363527    -1.7579399319    -0.4943702207
