15
meta_th27_ph90 | OPTIMIZED | |g_proj|=3.664e-05 | E=-3010.3445849276 Ha
C     -0.9267779842     1.9994260786     0.7856942070
C      0.4643186234     1.9366265624     0.6578130856
C      1.1527620660     0.7132412903     0.6749134739
C      0.4966110592    -0.4631778795     0.7166255175
C     -1.6325343957     0.8388298040     0.8429623827
H     -1.4219074931     2.9574012876     0.8298225514
H      1.0522559550     2.8423065499     0.5573342604
H      1.0391657554    -1.4004061520     0.7148898504
H     -2.7135315673     0.8434946194     0.9181005747
N      2.6361244104     0.7358688668     0.6322562497
O      3.1918152202    -0.2759312340     0.9650366685
O      3.1346306350     1.7682150199     0.2657784236
C     -0.9770601152    -0.4715335964     0.6766273002
H     -1.3869378125    -1.2284272362     1.3468024528
Br    -1.5007676307    -0.9943350153    -1.1131993238
