15
attempt 1 | |g_proj| = 1.248e-03 | E = -3010.3275395937 Ha
C     -1.7909762965     1.9378062584     0.8273961488
C     -0.3842965158     1.9898107917     0.8161596481
C      0.2883258640     0.8264142539     0.7262042871
C     -2.5130159148     0.7372826261     0.7690987692
H     -2.3403820251     2.8700940949     0.8854735804
H      0.1288685263     2.9316739359     0.8834920285
H     -3.5898212023     0.7626884158     0.8003035510
N      1.7538174526     0.7851311038     0.7558046037
O      2.2137921150     0.3048539011     1.7597364035
O      2.3136454761     1.1903420032    -0.2226925937
C     -1.8277232822    -0.4233283232     0.6592777926
H     -2.3422686258    -1.3659518759     0.5968598563
C     -0.3645396036    -0.4756774755     0.5677746346
H      0.0735515404    -1.2268575137     1.2272743304
Br     0.0275216188    -1.0598054798    -1.2624350854
