15
meta_th27_ph18 | OPTIMIZED | |g_proj|=1.918e-03 | E=-3010.3462600261 Ha
C     -0.9283455885     2.0218601233     0.7679443960
C      0.4691308267     1.9566310487     0.6847493443
C      1.1495584925     0.7306172545     0.6625831229
C      0.4890173629    -0.4445318141     0.6748795868
C     -1.6371165007     0.8628707006     0.7715050511
H     -1.4203121058     2.9830058591     0.8178055934
H      1.0620935202     2.8639695241     0.6494998679
H      1.0294536827    -1.3830626403     0.6390537574
H     -2.7188697407     0.8729282674     0.8126559550
N      2.6361380149     0.7305382933     0.6295474756
O      3.1658005911    -0.3475710134     0.6380937930
O      3.1586503796     1.8122892818     0.5799305334
C     -0.9814786719    -0.4532318184     0.6670751049
H     -1.3556801973    -1.1082905805     1.4597378726
Br    -1.5098733485    -1.2964235534    -0.9836038111
