15
attempt 1 | |g_proj| = 1.738e-03 | E = -3010.3244594235 Ha
C     -0.4667760049     1.2562340598     0.5060330596
C      0.8872938480     1.2480350898     0.5948513244
C      1.5232774203     0.0144894685     0.7045568906
H     -1.0185044121     2.1817347977     0.3997333490
H      1.4664254251     2.1546539185     0.5759489655
N      3.0007672074     0.0252814475     0.8120997949
O      3.5796329904    -0.8392359366     0.2131104445
O      3.4404853394     0.8902122943     1.5191794707
C     -0.4510534868    -1.2324178886     0.6897259643
H     -0.9996275431    -2.1588779242     0.7310188383
C      0.8984578513    -1.2343979577     0.7354477513
H      1.4900223035    -2.1375387158     0.7747678311
C     -1.2325464516     0.0109095276     0.6250144003
H     -1.7987383697     0.0891754026     1.5621275805
Br    -2.5531968231    -0.1207371055    -0.7781759927
