15
meta_th36_ph288 | OPTIMIZED | |g_proj|=1.527e-03 | E=-3010.3544860014 Ha
C     -0.9081774220     2.0317151650     0.7045686878
C      0.4861498306     1.9578357462     0.7892475050
C      1.1573149483     0.7403045708     0.6300788624
C      0.4870311684    -0.4189546219     0.4380086084
C     -1.6293239517     0.8877817870     0.5301364167
H     -1.3980215655     2.9903469845     0.7738855445
H      1.0799544756     2.8455729914     0.9777862374
H      1.0205048405    -1.3516898903     0.3092784272
H     -2.7108145035     0.9045633768     0.4793209949
N      2.6414606689     0.7303673262     0.6756504803
O      3.1740199192    -0.2592143977     0.2520777520
O      3.1623147682     1.7122862216     1.1365616157
C     -0.9733126089    -0.4240655211     0.5481332614
H     -1.1184574528    -0.6963264671     1.6083499775
Br    -1.8624763547    -1.8489241780    -0.3816265719
