15
meta_th45_ph0 | OPTIMIZED | |g_proj|=1.039e-03 | E=-3010.3395094770 Ha
C     -0.9318399633     2.0214315606     0.7658108164
C      0.4655995750     1.9571111410     0.6669913191
C      1.1429017153     0.7306848395     0.6648557163
C      0.4826831134    -0.4432277090     0.7166253288
C     -1.6368498181     0.8621291853     0.7992936828
H     -1.4210196483     2.9834779321     0.8063636836
H      1.0557898544     2.8648381934     0.6036725944
H      1.0206521337    -1.3823678040     0.6977891860
H     -2.7156514392     0.8715074195     0.8639622162
N      2.6265632125     0.7240264408     0.6171378368
O      3.1432848403    -0.3598118996     0.5961438055
O      3.1546515243     1.8032748352     0.5807405541
C     -0.9849037877    -0.4542151024     0.6959325936
H     -1.3954483020    -1.1490718561     1.4316506144
Br    -1.3982462977    -1.2281882627    -1.0355123230
