15
attempt 1 | |g_proj| = 6.635e-04 | E = -3010.3513744313 Ha
C     -0.4838164995     1.2370252372     0.5855123778
C      0.8734757735     1.2512771594     0.6713931440
C      1.5303323923     0.0217266714     0.7145978485
H     -1.0504418103     2.1596278111     0.5567124584
H      1.4468819529     2.1658776419     0.7021611793
N      3.0237830199     0.0509788964     0.8515367193
O      3.5429545670    -0.9889925950     1.1562016786
O      3.5470757256     1.1114693097     0.6381031782
C     -0.4420966895    -1.2562523092     0.5419033142
H     -0.9781601638    -2.1947853551     0.4833747085
C      0.9139320294    -1.2300537150     0.6479146082
H      1.5167386169    -2.1263582589     0.6808730584
C     -1.2336502372    -0.0216689830     0.5707296750
H     -1.7486324494    -0.0632288027     1.5448677041
Br    -2.6924569820     0.0308777694    -0.6804420390
