15
ortho_th45_ph252 | OPTIMIZED | |g_proj|=3.493e-03 | E=-3010.3409866926 Ha
C     -1.7837186980     1.9573227824     0.7022022008
C     -0.3642987958     1.9826571375     0.7110789387
C      0.3091961437     0.8200503976     0.6519324065
C     -2.5170400873     0.7812064666     0.6424519089
H     -2.3155049860     2.8998769435     0.7528086162
H      0.1658276249     2.9204168158     0.7713065732
H     -3.5967146026     0.8040416975     0.6232303627
N      1.7942225456     0.8483155978     0.6860177714
O      2.3627958661    -0.0408047748     0.1081742898
O      2.2797248019     1.7589552914     1.3019162027
C     -1.8360447281    -0.3993369697     0.7055901416
H     -2.3709838546    -1.3315430369     0.7848218445
C     -0.3709886937    -0.4851673612     0.6925900021
H      0.0191899423    -1.0773916280     1.5178637258
Br    -0.1291634069    -1.6541225772    -0.8622569655
