15
para_th18_ph180 | OPTIMIZED | |g_proj|=3.730e-04 | E=-3010.3573677398 Ha
C     -0.4769498236     1.2431122965     0.4759725695
C      0.8774735188     1.2539045715     0.6330512118
C      1.5276055143     0.0239773437     0.7265804701
H     -1.0380501401     2.1668373119     0.4031577383
H      1.4525232838     2.1684923398     0.6679606023
N      3.0202019088     0.0447246870     0.9077935923
O      3.5563459734    -1.0282927024     0.9783746618
O      3.5260845673     1.1326390947     0.9738130222
C     -0.4441827913    -1.2520299644     0.4927140388
H     -0.9807722827    -2.1914852332     0.4340282948
C      0.9102338618    -1.2238062424     0.6482726150
H      1.5093779340    -2.1222338348     0.6943556262
C     -1.2254675551    -0.0142206979     0.5231907464
H     -1.5745635435    -0.0129884113     1.5702852448
Br    -2.8739411546    -0.0411100810    -0.4641107885
