15
attempt 1 | |g_proj| = 1.713e-03 | E = -3010.3201188094 Ha
C     -0.4771624602     1.2713170486     0.6887836349
C      0.8717109470     1.2722653136     0.6929805588
C      1.4982928843     0.0218299609     0.7369493962
H     -1.0201083540     2.2008161873     0.6377130595
H      1.4619744029     2.1758161919     0.6635700410
N      2.9714648804     0.0031430316     0.6411372409
O      3.4085146591    -0.8044944404    -0.1329553766
O      3.5522873117     0.8048593537     1.3205126934
C     -0.4964545487    -1.2157111154     0.8908076207
H     -1.0479592049    -2.1446764401     0.9724743379
C      0.8610073139    -1.2052762758     0.8551297907
H      1.4366323474    -2.1117265694     0.8985190565
C     -1.2564023617     0.0217384770     0.6832537484
H     -2.1546059366     0.0778118518     1.2921989411
Br    -1.8432725610    -0.2201920971    -1.1756350394
