15
attempt 1 | |g_proj| = 1.835e-03 | E = -3010.3417482625 Ha
C     -0.4767119345     1.2203571919     0.7542415832
C      0.8756543721     1.2457503589     0.7496336383
C      1.5326796499     0.0118226621     0.7128971986
H     -1.0425594315     2.1359365299     0.8165798777
H      1.4473671487     2.1606311414     0.7706333442
N      3.0061036835     0.0404189018     0.7461186400
O      3.5110383302    -0.6687368796     1.5733285236
O      3.5256596185     0.7828448984    -0.0415729797
C     -0.4517131280    -1.2595193414     0.5834564467
H     -0.9915274569    -2.1934359227     0.5104667392
C      0.9023394579    -1.2371318119     0.6534742704
H      1.4992408624    -2.1331974269     0.6482120553
C     -1.2420521954    -0.0267855186     0.6561557689
H     -1.9700199830    -0.1174305217     1.4666938862
Br    -2.3595797406     0.1859962164    -0.9348793698
