15
ortho_th54_ph162 | OPTIMIZED | |g_proj|=8.242e-04 | E=-3010.3281836049 Ha
C     -1.7765038893     1.9297235762     0.6842226681
C     -0.3572777063     1.9799212308     0.7018188517
C      0.2959224664     0.8145507041     0.7227832600
C     -2.4977894481     0.7436656790     0.7498624993
H     -2.3120691357     2.8689726757     0.6374349006
H      0.1719936317     2.9217549284     0.7208890870
H     -3.5733775872     0.7606913520     0.7810449976
N      1.7770439089     0.8160546898     0.8086719934
O      2.2682795940    -0.2291608356     1.1502389230
O      2.3223774325     1.8598508099     0.5806790138
C     -1.8229585610    -0.4428027950     0.7840217020
H     -2.3470106152    -1.3901066888     0.8241062906
C     -0.3639847012    -0.4951122805     0.6297265171
H      0.1276352738    -1.2514065980     1.2389982270
Br    -0.2657815885    -1.1021196706    -1.2247709170
