15
attempt 1 | |g_proj| = 8.787e-05 | E = -3010.3392770261 Ha
C     -0.9260855552     1.9917272799     0.7979808912
C      0.4611019021     1.9277041111     0.6462462153
C      1.1514587562     0.7057296627     0.6800527616
C      0.4962467367    -0.4690327981     0.7416169922
C     -1.6321820103     0.8318333619     0.8708702884
H     -1.4214646476     2.9484646846     0.8432390472
H      1.0461128335     2.8311566059     0.5176459814
H      1.0382370309    -1.4057564800     0.7557116913
H     -2.7124369974     0.8368798842     0.9561146678
N      2.6321767904     0.7314424904     0.6300895278
O      3.1954164904    -0.2319201859     1.0749893918
O      3.1212225349     1.7174464466     0.1427610590
C     -0.9776185479    -0.4757476213     0.6793019090
H     -1.4090855631    -1.2628216257     1.2972433620
Br    -1.4549330254    -0.8755068430    -1.1624061023
