15
ortho_th81_ph0 | OPTIMIZED | |g_proj|=1.166e-03 | E=-3010.3294619355 Ha
C     -1.7902108903     1.9442136657     0.7149161137
C     -0.3664628623     1.9891132785     0.7052453257
C      0.2825457839     0.8240823070     0.6932472327
C     -2.5019111427     0.7544111112     0.7529417057
H     -2.3250696602     2.8855382510     0.7073788073
H      0.1594571230     2.9305612886     0.7191987814
H     -3.5750234152     0.7692660749     0.7830927185
N      1.7619333002     0.8224745939     0.7675016628
O      2.2626339701    -0.2560833721     0.9546431840
O      2.2952500700     1.8894928729     0.6496450366
C     -1.8238571841    -0.4327648815     0.7423703134
H     -2.3450794265    -1.3805266311     0.7707739152
C     -0.3674993643    -0.4882118668     0.6483119018
H      0.0804449189    -1.2099502413     1.3267976035
Br    -0.1006520818    -1.2571397478    -1.1463363611
