15
attempt 1 | |g_proj| = 2.342e-03 | E = -3010.3416304559 Ha
C     -1.7867537886     1.9392017599     0.7046941023
C     -0.3694211514     1.9855688477     0.7190854169
C      0.2937166166     0.8196410481     0.7141303801
C     -2.5111471765     0.7498269818     0.7439714339
H     -2.3235260374     2.8802444484     0.6772166397
H      0.1636385509     2.9257774878     0.7421678876
H     -3.5894775097     0.7690244873     0.7670339998
N      1.7800147054     0.8252860895     0.7658111146
O      2.2949865501    -0.2465775341     0.9595887951
O      2.3128525069     1.8950234088     0.6509122837
C     -1.8333098297    -0.4342000093     0.7574571707
H     -2.3578608733    -1.3823146021     0.7784560984
C     -0.3686553386    -0.4912031474     0.6327923544
H      0.0952644227    -1.2076997807     1.3123491328
Br    -0.1538225529    -1.2431227311    -1.1359388185
