15
para_th18_ph126 | OPTIMIZED | |g_proj|=1.684e-03 | E=-3010.3562857875 Ha
C     -0.4783672581     1.2389246777     0.5394367451
C      0.8776682557     1.2550526424     0.6594472868
C      1.5295922792     0.0235037986     0.7229364153
H     -1.0441995341     2.1611419430     0.5008819976
H      1.4526483368     2.1706066732     0.6920313705
N      3.0218753866     0.0494864079     0.8792242113
O      3.5386639223    -0.9993576265     1.1561825642
O      3.5479236465     1.1175335246     0.7159175670
C     -0.4423392595    -1.2559808105     0.5041255072
H     -0.9794570675    -2.1945361270     0.4350851997
C      0.9125408355    -1.2269367019     0.6434274164
H      1.5134876854    -2.1241968670     0.6833126469
C     -1.2279369976    -0.0201061826     0.5471029964
H     -1.6630743034    -0.0551133534     1.5601728998
Br    -2.7931066711     0.0074984790    -0.5738451972
