15
meta_th54_ph72 | OPTIMIZED | |g_proj|=7.548e-05 | E=-3010.3273452588 Ha
C     -0.9292822450     1.9852225862     0.8331793698
C      0.4518552877     1.9159619798     0.6498833220
C      1.1452185723     0.6997164656     0.6995325623
C      0.4937831379    -0.4738502891     0.7852244556
C     -1.6374538601     0.8271554805     0.9031753096
H     -1.4261406284     2.9402869185     0.8864945986
H      1.0294908113     2.8160078606     0.4880894360
H      1.0357169407    -1.4100885579     0.8101689135
H     -2.7174659028     0.8358543667     0.9881329848
N      2.6207952427     0.7183207190     0.6132262694
O      3.2037073895    -0.1393897015     1.2201001071
O      3.0833818667     1.5855790632    -0.0804162371
C     -0.9786803185    -0.4746630156     0.6826062699
H     -1.4448762280    -1.2943950920     1.2219315831
Br    -1.3218833472    -0.7301198476    -1.2298712974
