15
meta_th54_ph0 | OPTIMIZED | |g_proj|=1.353e-03 | E=-3010.3354806162 Ha
C     -0.9326063248     2.0210766933     0.7654618346
C      0.4651854128     1.9569401563     0.6663884827
C      1.1413663167     0.7309315138     0.6652127683
C      0.4818380539    -0.4431580964     0.7219237365
C     -1.6352704847     0.8619723914     0.8019881089
H     -1.4209515931     2.9831233398     0.8054002358
H      1.0538490134     2.8651730950     0.6006629874
H      1.0191071428    -1.3822905340     0.7038908170
H     -2.7130070542     0.8715526508     0.8677836157
N      2.6240240205     0.7227188452     0.6144450925
O      3.1376956866    -0.3623965946     0.5951032748
O      3.1518231604     1.8016619457     0.5750550904
C     -0.9846070604    -0.4545483323     0.7011327577
H     -1.3976531652    -1.1539154393     1.4306962448
Br    -1.3826264120    -1.2172427210    -1.0436874221
