15
meta_th18_ph162 | OPTIMIZED | |g_proj|=1.997e-04 | E=-3010.3575424595 Ha
C     -0.9154018111     2.0250837587     0.7567520984
C      0.4827677999     1.9585431655     0.7583129468
C      1.1600749110     0.7330457120     0.6637424651
C      0.4962503123    -0.4385130424     0.5578297982
C     -1.6270170447     0.8696932450     0.6658802284
H     -1.4082287516     2.9845085141     0.8171679566
H      1.0803987419     2.8616617023     0.8243131254
H      1.0339278087    -1.3756944469     0.4790931147
H     -2.7097773951     0.8796717707     0.6610442141
N      2.6476418174     0.7476794556     0.6471808320
O      3.1863787920    -0.3253944550     0.6660330880
O      3.1638072228     1.8346696998     0.6298862332
C     -0.9713308223    -0.4436599900     0.6038447803
H     -1.2364826404    -0.9843495018     1.5201421938
Br    -1.7748422076    -1.5253465942    -0.7797653741
