15
ortho_th27_ph216 | OPTIMIZED | |g_proj|=4.442e-04 | E=-3010.3482482526 Ha
C     -1.7910761684     1.9535089515     0.7142486142
C     -0.3711953629     1.9875295476     0.7176881725
C      0.2967640603     0.8232627103     0.6722531494
C     -2.5160378696     0.7660967335     0.6996881990
H     -2.3249103575     2.8976746397     0.7339337223
H      0.1643894078     2.9242718951     0.7710171224
H     -3.5957932512     0.7860215425     0.7054095148
N      1.7843496520     0.8441456486     0.7229217393
O      2.3308249496    -0.2177990227     0.5688135163
O      2.2912805350     1.9119130015     0.9360450933
C     -1.8328063249    -0.4162104153     0.7220163771
H     -2.3587979113    -1.3604121443     0.7623796655
C     -0.3678034722    -0.4865431230     0.6540899500
H      0.0629016405    -1.1417913194     1.4100489232
Br    -0.1255904447    -1.4871918770    -1.0008257541
