15
attempt 1 | |g_proj| = 6.303e-05 | E = -3010.3372358045 Ha
C     -0.9173754903     1.9882025793     0.7973415438
C      0.4683235211     1.9261433641     0.6527495201
C      1.1557102194     0.6996845036     0.6744951280
C      0.4967480682    -0.4716514404     0.7205400077
C     -1.6249387679     0.8280421481     0.8651208425
H     -1.4112686718     2.9435950729     0.8467381130
H      1.0551308081     2.8304737769     0.5385229309
H      1.0346381693    -1.4088508585     0.7345931719
H     -2.7041072134     0.8329662941     0.9555528315
N      2.6337126590     0.7349770656     0.6374701930
O      3.1996536713    -0.1791685083     1.1721996705
O      3.1193749620     1.6853826240     0.0794872178
C     -0.9759998541    -0.4784514570     0.6708095693
H     -1.4016760995    -1.2669405911     1.2907427980
Br    -1.5197592563    -0.8628056135    -1.1649058680
