15
para_th36_ph234 | OPTIMIZED | |g_proj|=1.025e-03 | E=-3010.3490529913 Ha
C     -0.4660459498     1.2474766441     0.4365654435
C      0.8876705594     1.2514922881     0.5860224803
C      1.5308097770     0.0204862802     0.7158250630
H     -1.0196412544     2.1718695446     0.3325148271
H      1.4681525216     2.1607448939     0.5986273893
N      3.0139930650     0.0298246242     0.9030955999
O      3.5875669014    -0.9811147857     0.5993118741
O      3.4740059559     1.0432693570     1.3556621121
C     -0.4490188396    -1.2392422024     0.5579805544
H     -0.9933669186    -2.1726547373     0.5380885240
C      0.9040497317    -1.2248082707     0.6791937270
H      1.4979403150    -2.1255369585     0.7254185577
C     -1.2263379439     0.0010477710     0.5483981620
H     -1.6031339049     0.0755842690     1.5829144158
Br    -2.8407247065    -0.1109182392    -0.4941790386
