15
attempt 1 | |g_proj| = 3.045e-03 | E = -3010.3204659076 Ha
C     -1.7564705643     1.9618274603     0.6255116763
C     -0.3465058541     1.9812418943     0.5893681432
C      0.2869688723     0.8025208425     0.6217626074
C     -2.4982345484     0.7872020957     0.7257443309
H     -2.2735905289     2.9093404442     0.5883903656
H      0.1942628954     2.9158170684     0.5624077093
H     -3.5717365224     0.8248862958     0.7517477365
N      1.7515415157     0.8288037533     0.7049841705
O      2.3535462342     0.4968658419    -0.2783860277
O      2.1637069222     1.2191857684     1.7653054346
C     -1.8520251476    -0.4082871791     0.7854471660
H     -2.3925257114    -1.3417745822     0.8794199006
C     -0.3885482310    -0.5020441821     0.7177672438
H     -0.0145901186    -1.0616614245     1.5767396748
Br    -0.0093001693    -1.6294472827    -0.8264820795
15
attempt 2 | |g_proj| = 1.589e-03 | E = -3010.3205434439 Ha
C     -1.7566113474     1.9582681421     0.6250405189
C     -0.3460307384     1.9787005058     0.5670983841
C      0.2904897564     0.8019118158     0.6099278999
C     -2.4996165410     0.7856565627     0.7419740527
H     -2.2739758050     2.9070242697     0.5989942406
H      0.1908256036     2.9155654211     0.5339730268
H     -3.5724340714     0.8262425992     0.7969479364
N      1.7553812826     0.8269197187     0.7163904970
O      2.3775794243     0.4672465393    -0.2439909215
O      2.1473054599     1.2446311462     1.7746302140
C     -1.8522763451    -0.4093912125     0.7778890789
H     -2.3947185643    -1.3426116274     0.8629908126
C     -0.3893055897    -0.4989672459     0.7049348812
H     -0.0206943230    -1.0543732097     1.5678965642
Br    -0.0094191617    -1.6223466062    -0.8449691289
