15
attempt 1 | |g_proj| = 2.228e-03 | E = -3010.3316541132 Ha
C     -0.9058741080     2.0337070839     0.6961993827
C      0.4928915641     1.9718563205     0.7117633857
C      1.1547943757     0.7353189555     0.6608026868
C      0.4789959126    -0.4287013365     0.6477100601
C     -1.6217159070     0.8795561062     0.6824147100
H     -1.3871897349     2.9947818913     0.7033821924
H      1.0920005822     2.8767868454     0.7579507216
H      1.0015076812    -1.3711343456     0.5991982393
H     -2.7006313637     0.8951755279     0.6843202034
N      2.6306261871     0.7271482936     0.6208374150
O      3.1129919819    -0.2471436340     0.1192142218
O      3.1916316562     1.6887624785     1.0761463906
C     -0.9838739607    -0.4404673232     0.6973309313
H     -1.3173062734    -0.9788377540     1.5942872793
Br    -1.6306818588    -1.5352101131    -0.7801001145
