15
attempt 1 | |g_proj| = 3.248e-03 | E = -3010.3586570965 Ha
C     -0.9155530292     2.0310021889     0.7427873217
C      0.4838047110     1.9665642192     0.7629236239
C      1.1575610679     0.7452304129     0.6331605118
C      0.4894149402    -0.4204117901     0.4804185117
C     -1.6320719854     0.8801573469     0.6083785132
H     -1.4089499779     2.9891614256     0.8191404206
H      1.0812417806     2.8636328886     0.8896065603
H      1.0262209136    -1.3533759132     0.3630921946
H     -2.7144986381     0.8902106497     0.5823853611
N      2.6461471466     0.7364521248     0.6730820580
O      3.1733676169    -0.3269998251     0.4870848110
O      3.1741405453     1.7967840350     0.8829950865
C     -0.9726150711    -0.4289108651     0.5573695777
H     -1.1697787204    -0.8314157476     1.5633880566
Br    -1.8102645554    -1.7364821157    -0.5743548673
15
attempt 2 | |g_proj| = 1.476e-03 | E = -3010.3586752082 Ha
C     -0.9158715742     2.0319882434     0.7414329173
C      0.4833652707     1.9655096776     0.7653048274
C      1.1576161774     0.7444701404     0.6352052327
C      0.4906099096    -0.4216288224     0.4794874558
C     -1.6321288593     0.8815002038     0.6042563793
H     -1.4093111589     2.9901043528     0.8205017428
H      1.0798990479     2.8636354699     0.8872851870
H      1.0277930261    -1.3554218950     0.3638912423
H     -2.7150128791     0.8917283086     0.5855401921
N      2.6455775076     0.7365070263     0.6717229130
O      3.1724069637    -0.3273501880     0.4882940017
O      3.1733253250     1.7968841467     0.8818320271
C     -0.9723367640    -0.4290665106     0.5576759565
H     -1.1694960328    -0.8324248611     1.5657975912
Br    -1.8082692138    -1.7348362530    -0.5767699203
