15
meta_th36_ph324 | OPTIMIZED | |g_proj|=4.782e-04 | E=-3010.3518464812 Ha
C     -0.9116405606     2.0376924816     0.7256800671
C      0.4878699310     1.9700943311     0.7367862718
C      1.1569620542     0.7426676071     0.6351327189
C      0.4846252397    -0.4213306326     0.5122864633
C     -1.6298283032     0.8864953134     0.6198140369
H     -1.3998685400     2.9980060173     0.7928048401
H      1.0851544576     2.8710016617     0.8304905041
H      1.0172084358    -1.3580640463     0.4118891210
H     -2.7115916576     0.9005075625     0.6176416210
N      2.6413916858     0.7263658797     0.6755833507
O      3.1600407056    -0.3190147876     0.3930168856
O      3.1729655493     1.7611994519     0.9820960838
C     -0.9773857534    -0.4277488506     0.5860070389
H     -1.2130773514    -0.8546092123     1.5745834671
Br    -1.7546591298    -1.7116636744    -0.6223546622
