15
para_th9_ph252 | OPTIMIZED | |g_proj|=4.906e-04 | E=-3010.3564361435 Ha
C     -0.4776355441     1.2441319282     0.4896463435
C      0.8782311516     1.2559295316     0.6270605869
C      1.5300842421     0.0254076125     0.7168833383
H     -1.0403053567     2.1668423555     0.4171487178
H      1.4530372411     2.1707089113     0.6621620492
N      3.0224120882     0.0442330791     0.8975428606
O      3.5682831867    -1.0257778293     0.8676464318
O      3.5197988620     1.1268292147     1.0542299420
C     -0.4448213236    -1.2498968399     0.5232652937
H     -0.9820676955    -2.1895006528     0.4765385007
C      0.9113732071    -1.2227209644     0.6519838297
H      1.5114860021    -2.1206596284     0.6960075990
C     -1.2276716723    -0.0128661736     0.5345522111
H     -1.6223980878     0.0045823549     1.5664760659
Br    -2.8338870174    -0.0697224204    -0.5157041108
