15
para_th27_ph54 | OPTIMIZED | |g_proj|=1.167e-03 | E=-3010.3436476632 Ha
C     -0.4936264519     1.2334077396     0.7042355198
C      0.8642079334     1.2476419963     0.7167229090
C      1.5209696837     0.0178143757     0.7108945204
H     -1.0625286046     2.1548884147     0.7120735425
H      1.4377537215     2.1612296691     0.7300409838
N      3.0160324955     0.0505205695     0.7577503362
O      3.5503081900    -0.9597101006     1.1279352393
O      3.5257792225     1.0828536653     0.4140982619
C     -0.4518711861    -1.2605663828     0.6419965659
H     -0.9893138468    -2.1986444472     0.6090223350
C      0.9047945926    -1.2368409563     0.6829022497
H      1.5099919844    -2.1316082092     0.7032474176
C     -1.2482953897    -0.0239775375     0.6331172482
H     -1.9621356450    -0.0719304973     1.4644465710
Br    -2.3561474567     0.0824421779    -0.9430440916
