15
attempt 1 | |g_proj| = 3.217e-03 | E = -3010.3454025885 Ha
C     -1.7825441303     1.9584433339     0.7213581030
C     -0.3659932575     1.9862088595     0.7105872031
C      0.2944257218     0.8199635274     0.6419273784
C     -2.5154987269     0.7798192470     0.6917144881
H     -2.3069779917     2.9037890162     0.7673382758
H      0.1748983269     2.9199260448     0.7728496899
H     -3.5937467576     0.8026345540     0.6840075273
N      1.7803094446     0.8451899961     0.7038599939
O      2.3413735252    -0.1576261969     0.3494307480
O      2.2740924382     1.8693629795     1.0920367895
C     -1.8452549538    -0.4118660439     0.6932008556
H     -2.3792349247    -1.3511988120     0.7518718653
C     -0.3812687574    -0.4867950190     0.6599395165
H      0.0001735626    -1.0987676050     1.4703983518
Br    -0.0482544825    -1.5946070580    -0.9207927231
