15
attempt 1 | |g_proj| = 1.402e-03 | E = -3010.3332156791 Ha
C     -0.4575318195     1.2550777762     0.5677625125
C      0.8906603846     1.2559402864     0.6007185916
C      1.5313802435     0.0105895416     0.7237420700
H     -1.0041000136     2.1757286890     0.4563955732
H      1.4851381286     2.1528281402     0.5316356017
N      2.9964614827     0.0157630054     0.7205256738
O      3.5025489838    -0.4133497982    -0.2783906279
O      3.5022237651     0.4680932413     1.7099422394
C     -0.4788963757    -1.2114846480     0.8539144358
H     -1.0407593405    -2.1293411705     0.9559219658
C      0.8765051042    -1.2175123821     0.8444543947
H      1.4468081464    -2.1254246868     0.9257858526
C     -1.2491777020     0.0223018853     0.6659127331
H     -2.0396011717     0.1216425425     1.4145536745
Br    -2.1957405073    -0.2333319443    -1.0274350005
