15
attempt 1 | |g_proj| = 4.515e-04 | E = -3010.3189513207 Ha
C     -0.5087921900     1.2302987007     0.8899199617
C      0.8483551058     1.2341617616     0.8843706955
C      1.4993199813     0.0126852684     0.7685803960
H     -1.0727363709     2.1525936208     0.9567774179
H      1.4108746248     2.1493538060     0.9252551103
N      2.9628107717     0.0426902203     0.6061084663
O      3.5944540606    -0.6511265832     1.3539701705
O      3.3355580261     0.7399975918    -0.2981478567
C     -0.4593839099    -1.2578357952     0.7091286706
H     -0.9937707615    -2.1909571686     0.6413346382
C      0.8886359863    -1.2462043281     0.7473954925
H      1.4879628595    -2.1447505804     0.7274172971
C     -1.2511644858    -0.0171198438     0.6795122339
H     -2.1602667771    -0.0745499040     1.2701794543
Br    -1.8159376817     0.1682837114    -1.1963625438
