15
ortho_th90_ph162 | OPTIMIZED | |g_proj|=8.164e-04 | E=-3010.3224152200 Ha
C     -1.7763441491     1.9414682811     0.7727239035
C     -0.3593808166     1.9911003473     0.7195697126
C      0.2800255770     0.8223337225     0.6667511212
C     -2.4992447930     0.7537968393     0.7741433039
H     -2.3068870522     2.8816022578     0.8296645063
H      0.1738587427     2.9304031652     0.7439741138
H     -3.5718527057     0.7741209043     0.8256401867
N      1.7542369752     0.8096668062     0.7520589249
O      2.2018185244    -0.1490875530     1.3249550231
O      2.3316373122     1.7540638273     0.2915100538
C     -1.8367474040    -0.4354133415     0.6993587715
H     -2.3689241817    -1.3787360205     0.6768976041
C     -0.3770012863    -0.4883712849     0.5972933314
H      0.0651810458    -1.1901005864     1.3011879009
Br    -0.0638766854    -1.2323706201    -1.1860004758
