15
ortho_th90_ph36 | OPTIMIZED | |g_proj|=1.456e-03 | E=-3010.3274569749 Ha
C     -1.7907658399     1.9457943573     0.8357789779
C     -0.3787951407     1.9878836548     0.8326580495
C      0.2805870789     0.8213388153     0.7401253964
C     -2.5085616059     0.7479188361     0.7473777519
H     -2.3376492404     2.8811922085     0.9001716246
H      0.1393416056     2.9287732716     0.8860726242
H     -3.5839966660     0.7763878415     0.7574991314
N      1.7454874346     0.7919164971     0.7359975194
O      2.2488888532     0.1870971736     1.6470336129
O      2.2624260890     1.3420815564    -0.1936192144
C     -1.8289338733    -0.4225425275     0.6512456864
H     -2.3498316919    -1.3633669868     0.5790220448
C     -0.3663376559    -0.4820414689     0.5967874557
H      0.0616278789    -1.2183009278     1.2806315618
Br     0.0530119089    -1.1396555932    -1.2070542772
