15
attempt 1 | |g_proj| = 5.029e-03 | E = -3010.3395884935 Ha
C     -1.7893451404     1.9398362971     0.7387690399
C     -0.3744519684     1.9877892511     0.7172773949
C      0.2875935983     0.8181688553     0.7118717971
C     -2.5175483235     0.7483879649     0.7723506800
H     -2.3287044019     2.8803103361     0.7358855945
H      0.1598700791     2.9286410714     0.7257393640
H     -3.5969634570     0.7693224573     0.8138529643
N      1.7726037395     0.8085422806     0.7616046927
O      2.2730171072    -0.2180080285     1.1465392076
O      2.3193607622     1.8269689383     0.4382738770
C     -1.8429890125    -0.4347966490     0.7294320556
H     -2.3672775427    -1.3820760913     0.6927959660
C     -0.3756318808    -0.4913249495     0.6226083170
H      0.0630278982    -1.2072880136     1.3248376297
Br    -0.0360623547    -1.1899969750    -1.1421105979
