15
attempt 1 | |g_proj| = 1.144e-04 | E = -3010.3439915999 Ha
C     -0.9305725606     2.0219561963     0.7702345847
C      0.4664055650     1.9580041134     0.6711040209
C      1.1451481354     0.7313789618     0.6643450941
C      0.4845042541    -0.4428493854     0.7062148285
C     -1.6374326168     0.8623918680     0.7913649285
H     -1.4210024376     2.9833975194     0.8157983751
H      1.0570503413     2.8657760755     0.6120991396
H      1.0235542607    -1.3819570659     0.6887134596
H     -2.7173705942     0.8714848780     0.8469651504
N      2.6298191402     0.7257899695     0.6197951867
O      3.1498057275    -0.3568301470     0.6081569202
O      3.1584958019     1.8047999335     0.5770579125
C     -0.9841257215    -0.4535334184     0.6871464463
H     -1.3880230976    -1.1399878373     1.4350965351
Br    -1.4280894851    -1.2482227479    -1.0226349569
