15
meta_th63_ph90 | OPTIMIZED | |g_proj|=1.241e-04 | E=-3010.3257202303 Ha
C     -0.9171867176     1.9793288926     0.8427120325
C      0.4615746401     1.9130057659     0.6666699801
C      1.1523753122     0.6905349430     0.6939117421
C      0.4940334802    -0.4769472449     0.7550352344
C     -1.6316485769     0.8216578632     0.8933475512
H     -1.4123716865     2.9322178297     0.9058398954
H      1.0419608750     2.8153485343     0.5285573344
H      1.0286197975    -1.4149308682     0.7727629157
H     -2.7118927904     0.8306872646     0.9783366431
N      2.6248735578     0.7247425041     0.6189611828
O      3.2187095953    -0.0151346272     1.3553168345
O      3.0779608902     1.4973861762    -0.1856850778
C     -0.9782427549    -0.4773946199     0.6686539311
H     -1.4394183859    -1.2960142267     1.2132867198
Br    -1.4011805172    -0.7228892497    -1.2362492720
