15
attempt 1 | |g_proj| = 9.826e-04 | E = -3010.3355829658 Ha
C     -0.4734481513     1.2202895244     0.8155868618
C      0.8751420585     1.2395332886     0.8104991959
C      1.5332578167     0.0042910681     0.7118879446
H     -1.0342440924     2.1352682535     0.9049861246
H      1.4522573866     2.1476595498     0.8756407870
N      2.9963144504     0.0374826579     0.7134685844
O      3.5060118653    -0.3674290850     1.7211973801
O      3.4970496433     0.4879391447    -0.2788595766
C     -0.4561761294    -1.2513374826     0.5824193856
H     -1.0024945629    -2.1783479338     0.4914067480
C      0.8978237429    -1.2385828806     0.6234940179
H      1.4855696258    -2.1377392789     0.5765355060
C     -1.2446818482    -0.0187885628     0.6697758140
H     -2.0103507430    -0.1139346559     1.4430576491
Br    -2.2561118089     0.1812168702    -0.9956568003
