15
attempt 1 | |g_proj| = 8.033e-04 | E = -3010.3190219199 Ha
C     -0.4841305197     1.2107273362     0.9808675384
C      0.8639489764     1.2202254027     1.0111264555
C      1.5019118322     0.0007634301     0.7574134838
H     -1.0369252921     2.1238042770     1.1287241483
H      1.4444619921     2.1131204162     1.1917542038
N      2.9667896585     0.0358364252     0.6196990897
O      3.5726070193     0.5300104924     1.5300683884
O      3.3665432025    -0.4081781231    -0.4220154078
C     -0.4797423397    -1.2550525335     0.5953262826
H     -1.0227857555    -2.1815870299     0.4534211289
C      0.8770753297    -1.2283212595     0.5875133405
H      1.4594193732    -2.1168242826     0.4213808929
C     -1.2518998023    -0.0100708389     0.6830992605
H     -2.1435770159    -0.1113521646     1.2954983528
Br    -1.8677773905     0.2244189312    -1.1684375179
