15
attempt 1 | |g_proj| = 5.255e-05 | E = -3010.3536866498 Ha
C     -1.7937820138     1.9545099128     0.7480958843
C     -0.3760128998     1.9898298513     0.7255757310
C      0.2905695088     0.8241557191     0.6554056649
C     -2.5232381928     0.7670177388     0.7260854925
H     -2.3265534207     2.8980316419     0.7958131303
H      0.1639339053     2.9256229340     0.7751540794
H     -3.6037562890     0.7885459242     0.7495374855
N      1.7807739811     0.8421248635     0.7077421588
O      2.3199644747    -0.2343162108     0.6939267658
O      2.2977492451     1.9247466885     0.7723961413
C     -1.8449242982    -0.4173420821     0.6865631098
H     -2.3745915582    -1.3622508591     0.6845082687
C     -0.3782143814    -0.4847571472     0.6268247430
H      0.0207193252    -1.1181808823     1.4184753950
Br    -0.0061383060    -1.5132613200    -0.9763760405
