15
attempt 1 | |g_proj| = 6.173e-04 | E = -3010.3411606741 Ha
C     -1.7872751869     1.9555382614     0.6883868528
C     -0.3648217948     1.9843423433     0.7086191282
C      0.3014080114     0.8212416108     0.6791502957
C     -2.5083355581     0.7707421754     0.6705517271
H     -2.3194696686     2.9005792753     0.6988850749
H      0.1691863461     2.9193614472     0.7679664299
H     -3.5863916931     0.7908373719     0.6587409414
N      1.7844981434     0.8412656197     0.7326345878
O      2.3367388068    -0.1847084248     0.4281487836
O      2.2812130149     1.8708631005     1.0993294399
C     -1.8234942366    -0.4102948454     0.7424602147
H     -2.3497193405    -1.3491755087     0.8221099398
C     -0.3612742995    -0.4877824941     0.6793117390
H      0.0829732423    -1.1547683271     1.4167760976
Br    -0.2087367075    -1.4835648324    -1.0033432423
