15
attempt 1 | |g_proj| = 3.072e-03 | E = -3010.3339259378 Ha
C     -1.7750164243     1.9512023513     0.6777835263
C     -0.3611004046     1.9784237555     0.6986901225
C      0.3103953442     0.8167078430     0.6564523791
C     -2.5156512047     0.7793217005     0.6557758770
H     -2.3012769211     2.8942690384     0.6867592408
H      0.1760950945     2.9121296422     0.7504254787
H     -3.5954907147     0.8027656846     0.6320513372
N      1.7895736825     0.8483526357     0.7031144519
O      2.3559691021     0.0206197689     0.0401326377
O      2.2747993133     1.7031238257     1.3944734354
C     -1.8414597994    -0.4040914869     0.7356613118
H     -2.3780824840    -1.3361214231     0.8290003489
C     -0.3745050578    -0.4865194595     0.7043103241
H      0.0243738724    -1.0927818558     1.5104942621
Br    -0.1421243514    -1.6029252106    -0.8853966873
