15
meta_th72_ph270 | OPTIMIZED | |g_proj|=4.302e-03 | E=-3010.3255588155 Ha
C     -0.9021010327     2.0269594686     0.6569642511
C      0.4869558814     1.9456309155     0.7578944795
C      1.1605170713     0.7276160815     0.6219853060
C      0.4861511125    -0.4248467596     0.4505651128
C     -1.6315833857     0.8849550871     0.5235526203
H     -1.3921006219     2.9839542311     0.6946942852
H      1.0816781761     2.8323737849     0.9326328972
H      1.0150910773    -1.3582478488     0.3349041978
H     -2.7142865465     0.9056597337     0.4791477090
N      2.6357061271     0.7258639565     0.6765104845
O      3.1935465748    -0.0479056913    -0.0511606940
O      3.1271042228     1.5036846356     1.4508876027
C     -0.9745127097    -0.4256049322     0.5889807096
H     -1.0830472654    -0.6428676066     1.6732980185
Br    -1.8809519409    -1.8356260356    -0.3193992521
