15
attempt 1 | |g_proj| = 2.836e-03 | E = -3010.3553713413 Ha
C     -0.9213202449     2.0242609564     0.7633620016
C      0.4781547463     1.9607199943     0.7221325559
C      1.1577763271     0.7348781041     0.6555472823
C      0.4935673665    -0.4381287828     0.5861021605
C     -1.6335728764     0.8667051571     0.7033439588
H     -1.4147041722     2.9847012312     0.8313976060
H      1.0748676852     2.8673725533     0.7427893851
H      1.0336705837    -1.3741340785     0.5121317073
H     -2.7172209685     0.8774258709     0.7184227666
N      2.6461944753     0.7415381472     0.6505485819
O      3.1792371954    -0.3348979532     0.6454166388
O      3.1682808004     1.8255176740     0.6551471085
C     -0.9750526859    -0.4461033896     0.6157249388
H     -1.2685015864    -1.0108391273     1.5080825923
Br    -1.6932099286    -1.4774174297    -0.8386916459
15
attempt 2 | |g_proj| = 2.764e-03 | E = -3010.3553819667 Ha
C     -0.9205951800     2.0247657241     0.7642260390
C      0.4774750601     1.9608631769     0.7217502305
C      1.1572441115     0.7359386791     0.6567575711
C      0.4948221161    -0.4380084774     0.5853647816
C     -1.6334592395     0.8684126345     0.7044461577
H     -1.4143675222     2.9828878748     0.8297647106
H      1.0742005126     2.8657775421     0.7434237951
H      1.0343399364    -1.3759809222     0.5137196836
H     -2.7169325624     0.8763830057     0.7194605764
N      2.6453238360     0.7416599218     0.6515550565
O      3.1807914320    -0.3337867199     0.6499804707
O      3.1678218238     1.8249756104     0.6480823178
C     -0.9750534862    -0.4450564289     0.6164508632
H     -1.2698621536    -1.0146546363     1.5084759638
Br    -1.6935819663    -1.4725780528    -0.8420005747
15
attempt 3 | |g_proj| = 1.702e-03 | E = -3010.3553886837 Ha
C     -0.9210604950     2.0243030095     0.7638932895
C      0.4779082676     1.9603336968     0.7222984305
C      1.1576577003     0.7347318816     0.6566884947
C      0.4941772105    -0.4386624539     0.5863690253
C     -1.6333563370     0.8670341763     0.7050992450
H     -1.4147897390     2.9839899121     0.8294784777
H      1.0746255486     2.8664063447     0.7434454469
H      1.0341290922    -1.3754394277     0.5141117717
H     -2.7169346967     0.8764607163     0.7199155837
N      2.6459978705     0.7418263490     0.6509061792
O      3.1804459918    -0.3339693043     0.6519940420
O      3.1676059597     1.8259511844     0.6459334917
C     -0.9749676719    -0.4459824894     0.6169879701
H     -1.2697920516    -1.0148941753     1.5071341238
Br    -1.6934799304    -1.4704904836    -0.8427979246
