15
attempt 1 | |g_proj| = 1.056e-03 | E = -3010.3551037253 Ha
C     -0.4804574624     1.2379823360     0.5464318359
C      0.8758073259     1.2506973512     0.6601108626
C      1.5321518189     0.0217218859     0.7195292315
H     -1.0437806543     2.1621571269     0.5084344547
H      1.4502926801     2.1646424827     0.6926600843
N      3.0253813529     0.0503058267     0.8762302075
O      3.5432656257    -0.9942025325     1.1671329972
O      3.5504437385     1.1168145129     0.7005746752
C     -0.4411468955    -1.2546892561     0.5087046992
H     -0.9763989410    -2.1935074724     0.4405222154
C      0.9141968130    -1.2275795388     0.6426075135
H      1.5144104817    -2.1248400606     0.6818799773
C     -1.2295498195    -0.0201925316     0.5483477309
H     -1.6805621683    -0.0594329922     1.5540405850
Br    -2.7881346426     0.0176433396    -0.5817674477
