15
attempt 1 | |g_proj| = 1.808e-03 | E = -3010.3214110379 Ha
C     -1.7692778217     1.9182698475     0.7116249265
C     -0.3552537241     1.9743911225     0.7118658763
C      0.2984512043     0.8093061304     0.7197940354
C     -2.4933000494     0.7336380448     0.7770509122
H     -2.3055474404     2.8547388563     0.6799437665
H      0.1757087211     2.9155080996     0.7305962279
H     -3.5685911072     0.7489525331     0.8166772284
N      1.7729398161     0.8116180872     0.8237323833
O      2.2213046110    -0.0777524382     1.5011140587
O      2.3526376910     1.7113864903     0.2825710867
C     -1.8245145893    -0.4543024908     0.7697553426
H     -2.3538646033    -1.3999593417     0.7695500067
C     -0.3647550729    -0.4974318437     0.6011215032
H      0.1351101772    -1.2663001437     1.1845841116
Br    -0.2745486974    -0.9975862223    -1.2902534971
