15
ortho_th63_ph36 | OPTIMIZED | |g_proj|=4.621e-04 | E=-3010.3341007327 Ha
C     -1.7968516903     1.9438194112     0.7738575746
C     -0.3828574453     1.9908849708     0.7414856088
C      0.2756887428     0.8216848856     0.7217459917
C     -2.5148230080     0.7440881432     0.7891038371
H     -2.3420715114     2.8813667909     0.7964757640
H      0.1403456897     2.9315841513     0.7461130038
H     -3.5902392230     0.7684159072     0.8437205283
N      1.7481918948     0.7857081857     0.7699799000
O      2.2135146638    -0.0917187765     1.4527034380
O      2.3142899886     1.6119596226     0.1116309713
C     -1.8342906446    -0.4290452932     0.6987870952
H     -2.3521788436    -1.3745410731     0.6660491000
C     -0.3747080622    -0.4819087229     0.6061808241
H      0.0614480845    -1.2250405364     1.2744666309
Br     0.0810405028    -1.0927809629    -1.2025723267
