15
attempt 1 | |g_proj| = 3.499e-03 | E = -3010.3228676972 Ha
C     -0.4752217856     1.2466756235     0.7118860245
C      0.8757916714     1.2545293801     0.7751488988
C      1.5105367961     0.0142896992     0.7558124588
H     -1.0295959046     2.1738025351     0.6995550771
H      1.4580598049     2.1640695826     0.7825266024
N      2.9990097585     0.0322794454     0.7272508148
O      3.5311871602    -0.9228020021     1.2229825410
O      3.4955782260     1.0015655864     0.2192415062
C     -0.4607507180    -1.2549626256     0.6217896941
H     -1.0010724946    -2.1883434954     0.5216767186
C      0.8928990085    -1.2321332025     0.7163603901
H      1.4853557817    -2.1326968785     0.7191642311
C     -1.2388863408    -0.0093350102     0.6482238496
H     -1.9320433879    -0.0504496672     1.4895641556
Br    -2.3449283000     0.0510315069    -0.9457433133
15
attempt 2 | |g_proj| = 1.641e-03 | E = -3010.3229435863 Ha
C     -0.4752235723     1.2431553451     0.7047745362
C      0.8755506665     1.2552221953     0.7663887250
C      1.5137747471     0.0173903983     0.7455926767
H     -1.0272900243     2.1703287425     0.7110047222
H      1.4483430747     2.1699992445     0.7829751978
N      3.0010477705     0.0298911523     0.7299554557
O      3.5234083856    -0.9305243336     1.2255750083
O      3.5060543029     0.9996542225     0.2326440951
C     -0.4592461738    -1.2534214027     0.6160887465
H     -0.9918214843    -2.1931640417     0.5460482164
C      0.8935945832    -1.2269972776     0.7091266503
H      1.4824497623    -2.1282994501     0.7177857141
C     -1.2401093115    -0.0105842946     0.6366191324
H     -1.9231145775    -0.0539421116     1.4864193243
Br    -2.3614988697     0.0588120892    -0.9455585470
