15
attempt 1 | |g_proj| = 2.934e-03 | E = -3010.3486703438 Ha
C     -0.4730521460     1.2478860995     0.4675451901
C      0.8776350807     1.2488222944     0.6459985997
C      1.5203953414     0.0188039036     0.7464675976
H     -1.0209661488     2.1790113871     0.3946674510
H      1.4576340482     2.1585803911     0.6707741742
N      3.0130186009     0.0402736435     0.8989787682
O      3.5419428219    -1.0344356756     0.9875910010
O      3.5229281651     1.1274125867     0.9315349996
C     -0.4482708543    -1.2482082438     0.4925912020
H     -0.9885489805    -2.1839716691     0.4196803202
C      0.9026342184    -1.2279421934     0.6698171395
H      1.4939062269    -2.1318935026     0.7084202597
C     -1.2257678510    -0.0071723781     0.5223304096
H     -1.5422598060     0.0116247968     1.5805276744
Br    -2.8653094221    -0.0512709622    -0.4714851132
15
attempt 2 | |g_proj| = 1.394e-03 | E = -3010.3486948945 Ha
C     -0.4725120286     1.2481134915     0.4681432507
C      0.8787528582     1.2506086723     0.6434740579
C      1.5212758204     0.0182559219     0.7414627755
H     -1.0253525358     2.1762636408     0.3899575356
H      1.4576604293     2.1621636108     0.6730814202
N      3.0150813550     0.0373318607     0.8991218719
O      3.5469052243    -1.0358591425     0.9890330257
O      3.5224974622     1.1255090999     0.9340397171
C     -0.4493035406    -1.2482592387     0.4924575218
H     -0.9875990732    -2.1849479537     0.4201681731
C      0.9017756281    -1.2269956784     0.6676434188
H      1.4944612466    -2.1287941946     0.7110192252
C     -1.2250845873    -0.0071710312     0.5228975649
H     -1.5460628183     0.0073534082     1.5796636494
Br    -2.8665761420    -0.0460519891    -0.4667235297
