15
attempt 1 | |g_proj| = 3.301e-03 | E = -3010.3359065269 Ha
C     -0.4625690946     1.2490120687     0.4259004552
C      0.8898647101     1.2408525877     0.5734540848
C      1.5245618724     0.0109461511     0.7170977332
H     -1.0089791640     2.1782876450     0.3254771658
H      1.4720236946     2.1461643294     0.5657478559
N      3.0048758164     0.0282832948     0.9036441328
O      3.5914418965    -0.9684801321     0.5787797606
O      3.4463279785     1.0349654388     1.3893053621
C     -0.4510190470    -1.2391037236     0.5576452753
H     -0.9924905754    -2.1722057752     0.5293745910
C      0.8984015303    -1.2338531189     0.6946273558
H      1.4865176125    -2.1386901903     0.7368029008
C     -1.2262368567     0.0059218207     0.5533759265
H     -1.5698217768     0.0820258439     1.6016381348
Br    -2.8369792885    -0.0766057612    -0.4874310429
