15
para_th27_ph162 | OPTIMIZED | |g_proj|=1.846e-03 | E=-3010.3542228621 Ha
C     -0.4751415939     1.2468211164     0.4997736984
C      0.8781205903     1.2539119544     0.6589842458
C      1.5260770096     0.0214122066     0.7378601402
H     -1.0334963784     2.1731344596     0.4398793787
H      1.4553452237     2.1668895286     0.6971162806
N      3.0216339711     0.0398507882     0.8847872147
O      3.5454992816    -1.0245138226     1.0750351772
O      3.5400552494     1.1209395953     0.8102899361
C     -0.4458300210    -1.2499646967     0.4952448685
H     -0.9841327632    -2.1873414230     0.4189511656
C      0.9068202341    -1.2250364491     0.6618751379
H      1.5023648538    -2.1252906299     0.7066046808
C     -1.2258431531    -0.0111881764     0.5296531109
H     -1.6045802931    -0.0171930102     1.5645732534
Br    -2.8409729274    -0.0349109632    -0.5151886296
