15
attempt 1 | |g_proj| = 2.695e-03 | E = -3010.3562705009 Ha
C     -0.9200799738     2.0221133567     0.7627590800
C      0.4791016144     1.9584324070     0.7273578575
C      1.1592425453     0.7324426647     0.6619381149
C      0.4955132186    -0.4414192076     0.5926958489
C     -1.6311778560     0.8639010935     0.7091478420
H     -1.4139096184     2.9820911076     0.8230818905
H      1.0758908383     2.8651541117     0.7459761607
H      1.0347319384    -1.3786694747     0.5273680388
H     -2.7143937166     0.8718573067     0.7271286884
N      2.6473653556     0.7456615752     0.6476930366
O      3.1839822603    -0.3281840941     0.6897309786
O      3.1651061069     1.8311474375     0.5984601246
C     -0.9735965724    -0.4488989608     0.6244367130
H     -1.2749395581    -1.0399048483     1.4957057108
Br    -1.7046698581    -1.4341255205    -0.8620224197
15
attempt 2 | |g_proj| = 1.180e-03 | E = -3010.3562775179 Ha
C     -0.9196985208     2.0223737701     0.7629757330
C      0.4786404074     1.9587198206     0.7265253534
C      1.1588054906     0.7330478266     0.6619477806
C      0.4961426205    -0.4412213390     0.5936228402
C     -1.6312135921     0.8644378636     0.7106902953
H     -1.4137382498     2.9814711781     0.8227581349
H      1.0755986606     2.8644409705     0.7463430260
H      1.0350247981    -1.3790375416     0.5273735029
H     -2.7146430505     0.8718755196     0.7270888101
N      2.6465170543     0.7452367074     0.6472178986
O      3.1849654160    -0.3273966347     0.6905642362
O      3.1649785039     1.8301548435     0.5978181710
C     -0.9737539270    -0.4489558266     0.6230327231
H     -1.2750347453    -1.0400329383     1.4960384204
Br    -1.7044241403    -1.4335152606    -0.8625392557
