15
meta_th90_ph18 | OPTIMIZED | |g_proj|=1.082e-03 | E=-3010.3233245174 Ha
C     -0.9322510902     2.0157073264     0.7752720537
C      0.4623241550     1.9412085942     0.6923321806
C      1.1397204821     0.7184482399     0.6906306371
C      0.4899520930    -0.4614772584     0.7381248542
C     -1.6259240608     0.8554572290     0.8106746077
H     -1.4240371115     2.9771195173     0.7957445343
H      1.0481211060     2.8468974354     0.6259959569
H      1.0287201196    -1.4013385989     0.7323837738
H     -2.7014479554     0.8635950943     0.8615456925
N      2.6203389445     0.7222619516     0.6016139836
O      3.1694769651    -0.3340196360     0.7590605654
O      3.1081678807     1.7920049236     0.3635912180
C     -0.9758839754    -0.4614081249     0.7186667566
H     -1.3980626447    -1.1951740123     1.4006107736
Br    -1.4010481942    -1.0776837629    -1.0947899584
