15
meta_th18_ph270 | OPTIMIZED | |g_proj|=6.230e-04 | E=-3010.3620947242 Ha
C     -0.9154536508     2.0309374425     0.7322480209
C      0.4816147004     1.9598537903     0.7894207754
C      1.1571815248     0.7418807817     0.6410957298
C      0.4920416388    -0.4231352170     0.4625442635
C     -1.6321032428     0.8833912587     0.5660203368
H     -1.4089555552     2.9893736557     0.8103308105
H      1.0766366996     2.8538701257     0.9421285973
H      1.0307199166    -1.3562582761     0.3442369111
H     -2.7148758373     0.8978120347     0.5283816352
N      2.6453483186     0.7382987101     0.6656411851
O      3.1757853595    -0.3072593828     0.4027835230
O      3.1709284831     1.7821067718     0.9513009255
C     -0.9706442762    -0.4270840437     0.5491418429
H     -1.1386112520    -0.7756919495     1.5807045357
Br    -1.8414460866    -1.7864966810    -0.4945213649
