15
ortho_th45_ph72 | OPTIMIZED | |g_proj|=2.673e-03 | E=-3010.3341182158 Ha
C     -1.7927538606     1.9344127119     0.7440610500
C     -0.3815832141     1.9839830417     0.7277390656
C      0.2834959214     0.8153828707     0.7452508683
C     -2.5200633783     0.7402033760     0.7935636849
H     -2.3376158221     2.8709764727     0.7305736728
H      0.1485172014     2.9228166678     0.7128879999
H     -3.5988712842     0.7658721386     0.8442312337
N      1.7607721896     0.7827247518     0.7847214008
O      2.2359027156    -0.1476738039     1.3856090006
O      2.3277865263     1.6703789016     0.2110427291
C     -1.8411328504    -0.4348407864     0.7348014157
H     -2.3646936431    -1.3787331671     0.7066425607
C     -0.3761375392    -0.4870331330     0.6134001593
H      0.0688989299    -1.2390788962     1.2667842098
Br     0.0339772263    -1.0149144197    -1.2115810872
