15
meta_th9_ph324 | OPTIMIZED | |g_proj|=1.443e-03 | E=-3010.3602250905 Ha
C     -0.9168550442     2.0298462349     0.7476030855
C      0.4816206573     1.9619336535     0.7749139190
C      1.1573926383     0.7412430866     0.6447363672
C      0.4926226601    -0.4264188276     0.4914307775
C     -1.6321175378     0.8791968179     0.6069997075
H     -1.4103798049     2.9884536532     0.8267068489
H      1.0781323686     2.8596170087     0.8983230387
H      1.0315907586    -1.3601674626     0.3789477935
H     -2.7151286353     0.8921351011     0.5808075656
N      2.6462064367     0.7409987261     0.6626451144
O      3.1771153799    -0.3266651078     0.5151562799
O      3.1714993066     1.8115116531     0.8214938426
C     -0.9715772634    -0.4315019456     0.5599762569
H     -1.1727615801    -0.8448611545     1.5610746542
Br    -1.8091935983    -1.7137224180    -0.5993575231
