15
attempt 1 | |g_proj| = 9.873e-04 | E = -3010.3291736380 Ha
C     -1.7928187184     1.9446427424     0.8097207252
C     -0.3802294281     1.9889712620     0.7977381465
C      0.2793666832     0.8212044899     0.7352004069
C     -2.5116070871     0.7457670584     0.7620844890
H     -2.3366287051     2.8819632086     0.8581676504
H      0.1383522551     2.9305570789     0.8321580783
H     -3.5869196928     0.7715491229     0.7878020900
N      1.7467269816     0.7888195457     0.7499067910
O      2.2340149966     0.0771749451     1.5906139472
O      2.2836671777     1.4477802637    -0.0942292035
C     -1.8298011264    -0.4241931597     0.6717944063
H     -2.3446773655    -1.3687061283     0.6182978963
C     -0.3696458271    -0.4813500163     0.6036078983
H      0.0592370646    -1.2259912185     1.2761024338
Br     0.0574619227    -1.1137124827    -1.2092378052
