15
attempt 1 | |g_proj| = 2.198e-03 | E = -3010.3245041326 Ha
C     -0.9385728500     2.0080509893     0.7928637319
C      0.4534467796     1.9373097501     0.6654783562
C      1.1351338002     0.7185312488     0.7003739654
C      0.4864276867    -0.4608099219     0.7795612238
C     -1.6330843608     0.8482548980     0.8588563441
H     -1.4282520614     2.9699217966     0.8170654018
H      1.0353845032     2.8408182522     0.5469733154
H      1.0288134752    -1.3985655848     0.7922219064
H     -2.7079408398     0.8626343842     0.9437940787
N      2.6142334102     0.7154477349     0.6012043299
O      3.1586039081    -0.3264821560     0.8473974792
O      3.1055218174     1.7526587215     0.2487677272
C     -0.9805569017    -0.4657469947     0.7133246919
H     -1.4317305966    -1.2431572107     1.3248331674
Br    -1.2892610564    -0.9572669891    -1.1612580895
15
attempt 2 | |g_proj| = 4.488e-04 | E = -3010.3247004897 Ha
C     -0.9372244161     2.0112048783     0.8083538420
C      0.4557922117     1.9398873813     0.6790569781
C      1.1346108578     0.7202240431     0.6964621559
C      0.4848186677    -0.4588040022     0.7754492063
C     -1.6333750869     0.8520251719     0.8456099950
H     -1.4277318627     2.9719682632     0.8524195478
H      1.0384217262     2.8444410312     0.5711140036
H      1.0248198148    -1.3976156911     0.7885525665
H     -2.7096124452     0.8607717217     0.9065163460
N      2.6117504743     0.7144466608     0.5923035657
O      3.1581674733    -0.3159333726     0.8795737585
O      3.0988774247     1.7371535739     0.1941539614
C     -0.9805974917    -0.4616821824     0.7090602295
H     -1.4332592945    -1.2303129647     1.3309093640
Br    -1.2772913383    -0.9861755895    -1.1580778860
