15
meta_th72_ph18 | OPTIMIZED | |g_proj|=4.488e-04 | E=-3010.3247004897 Ha
C     -0.9372244161     2.0112048783     0.8083538420
C      0.4557922117     1.9398873813     0.6790569781
C      1.1346108578     0.7202240431     0.6964621559
C      0.4848186677    -0.4588040022     0.7754492063
C     -1.6333750869     0.8520251719     0.8456099950
H     -1.4277318627     2.9719682632     0.8524195478
H      1.0384217262     2.8444410312     0.5711140036
H      1.0248198148    -1.3976156911     0.7885525665
H     -2.7096124452     0.8607717217     0.9065163460
N      2.6117504743     0.7144466608     0.5923035657
O      3.1581674733    -0.3159333726     0.8795737585
O      3.0988774247     1.7371535739     0.1941539614
C     -0.9805974917    -0.4616821824     0.7090602295
H     -1.4332592945    -1.2303129647     1.3309093640
Br    -1.2772913383    -0.9861755895    -1.1580778860
