15
para_th90_ph90 | OPTIMIZED | |g_proj|=8.883e-05 | E=-3010.3362815484 Ha
C     -0.4763773780     1.2276237432     0.8647275527
C      0.8749522150     1.2379939646     0.8861201342
C      1.5358186904     0.0128676354     0.7123203401
H     -1.0376070431     2.1403975249     0.9824571514
H      1.4492274829     2.1377267974     1.0233782051
N      2.9973117931     0.0212794397     0.7086179458
O      3.5031980524     0.0777827479     1.7944993830
O      3.5017024010    -0.0330213590    -0.3776612542
C     -0.4546715404    -1.2322688110     0.5544572175
H     -1.0009117940    -2.1545187871     0.4419930055
C      0.8967074226    -1.2227707143     0.5456402284
H      1.4856744893    -2.1146871466     0.4196443585
C     -1.2469517443    -0.0054265240     0.6767612272
H     -2.0237018980    -0.1014152051     1.4396618985
Br    -2.2384518913     0.1559571723    -1.0071777668
