15
meta_th45_ph72 | OPTIMIZED | |g_proj|=1.729e-04 | E=-3010.3322889261 Ha
C     -0.9305779942     1.9881678948     0.8175405873
C      0.4530038918     1.9195286292     0.6415279605
C      1.1458271063     0.7021427367     0.6929236065
C      0.4938958665    -0.4725054839     0.7787781273
C     -1.6371408437     0.8296925844     0.8968007228
H     -1.4265023966     2.9446686329     0.8653910555
H      1.0333564575     2.8197648442     0.4837595182
H      1.0360331665    -1.4092171522     0.8029413357
H     -2.7170455335     0.8374805863     0.9853890565
N      2.6242059136     0.7222869503     0.6184199530
O      3.1970817366    -0.1987105377     1.1354101661
O      3.0996066378     1.6560849235     0.0272107191
C     -0.9794969340    -0.4750085052     0.6848253231
H     -1.4376574861    -1.2848741042     1.2482337552
Br    -1.3464228658    -0.7779030483    -1.2076942257
