15
meta_th81_ph54 | OPTIMIZED | |g_proj|=3.266e-04 | E=-3010.3162854825 Ha
C     -0.9289056913     1.9946412104     0.8767458912
C      0.4552683498     1.9212113200     0.7283382989
C      1.1418770900     0.7069606663     0.7357202568
C      0.4920457474    -0.4699202732     0.7812997684
C     -1.6379862980     0.8388200410     0.8685413204
H     -1.4277800791     2.9489021791     0.9415093233
H      1.0297257355     2.8265817002     0.6137346326
H      1.0311237572    -1.4087688611     0.7769369822
H     -2.7186101357     0.8533052253     0.9075649564
N      2.6079641049     0.7078316097     0.5812365535
O      3.2365521325     0.0060023260     1.3266866929
O      3.0098741016     1.3922994554    -0.3217011243
C     -0.9750074990    -0.4629476528     0.6831365371
H     -1.4502859201    -1.2754088944     1.2174077214
Br    -1.2576886795    -0.7779111243    -1.2457001725
