15
attempt 1 | |g_proj| = 2.271e-04 | E = -3010.3539151966 Ha
C     -0.4735765600     1.2457428954     0.4517456244
C      0.8798081839     1.2523330255     0.6202218616
C      1.5258747704     0.0219633223     0.7292093148
H     -1.0318053878     2.1699944199     0.3634414467
H      1.4559663989     2.1655969569     0.6510244920
N      3.0173827034     0.0380090899     0.9115569397
O      3.5609726277    -1.0331723316     0.8879134770
O      3.5133579631     1.1195538275     1.0774015351
C     -0.4467535509    -1.2484836307     0.4993582012
H     -0.9849399724    -2.1865637478     0.4465238514
C      0.9063754936    -1.2246332797     0.6597834684
H      1.5028690398    -2.1246404349     0.7089634111
C     -1.2251183377    -0.0085545719     0.5223528040
H     -1.5495219642     0.0173113367     1.5777214665
Br    -2.8849721166    -0.0569363996    -0.4417782256
