15
para_th45_ph72 | OPTIMIZED | |g_proj|=8.695e-04 | E=-3010.3396040814 Ha
C     -0.4939989986     1.2208038680     0.7771973485
C      0.8619622067     1.2400695493     0.7520131914
C      1.5227901556     0.0131512205     0.7123464100
H     -1.0635012055     2.1388278360     0.8283608002
H      1.4309807119     2.1545706216     0.7696665294
N      3.0031680400     0.0493388519     0.7199346999
O      3.5385536412    -0.7895489699     1.3923573147
O      3.5001957240     0.9134607954     0.0496219032
C     -0.4509874554    -1.2633932371     0.6401491584
H     -0.9869441175    -2.1992307476     0.5953008299
C      0.9023695658    -1.2430082625     0.6770461670
H      1.5072871461    -2.1368093196     0.6853030045
C     -1.2506025071    -0.0300968149     0.6580644771
H     -2.0300696361    -0.1045821166     1.4218293255
Br    -2.2252840210     0.1839672031    -1.0137515418
