15
ortho_th72_ph324 | OPTIMIZED | |g_proj|=1.276e-03 | E=-3010.3189394395 Ha
C     -1.7534754809     1.9534901624     0.6251616866
C     -0.3456909311     1.9781819157     0.6051940824
C      0.2941175326     0.8009976902     0.6372572824
C     -2.5023690630     0.7822661847     0.7141236919
H     -2.2707743901     2.8996797898     0.5808991837
H      0.1953503460     2.9136872425     0.5751345148
H     -3.5778884924     0.8188631164     0.7259271522
N      1.7622961990     0.8296188712     0.6998328731
O      2.3463287091     0.5171893128    -0.3003512317
O      2.1968388101     1.2114665242     1.7542812597
C     -1.8579685694    -0.4115009423     0.7867224042
H     -2.4036571315    -1.3427436221     0.8786228435
C     -0.3910932227    -0.5010605301     0.7313154086
H     -0.0234637280    -1.0495416807     1.5984845706
Br    -0.0220515400    -1.6161172252    -0.8228776745
