15
para_th45_ph324 | OPTIMIZED | |g_proj|=1.958e-03 | E=-3010.3300219773 Ha
C     -0.4837679007     1.2670691401     0.6888983097
C      0.8692581840     1.2670830497     0.7082120699
C      1.5020414710     0.0209712429     0.7218102362
H     -1.0287454312     2.1968159747     0.6255520961
H      1.4575776672     2.1725322691     0.7140423617
N      2.9894627794     0.0158183580     0.6561826454
O      3.4732649654    -0.9478554344     0.1261650221
O      3.5383328017     0.9798870102     1.1161891821
C     -0.4895427582    -1.2225143508     0.8590130329
H     -1.0395006965    -2.1509169456     0.9540708050
C      0.8676104641    -1.2153356426     0.8029318358
H      1.4508033570    -2.1210762814     0.8279144406
C     -1.2607598068     0.0151830533     0.6701202622
H     -2.1283561580     0.0713539553     1.3297472299
Br    -1.9517595922    -0.2014949187    -1.1354097935
