15
ortho_th27_ph36 | OPTIMIZED | |g_proj|=1.706e-03 | E=-3010.3474792185 Ha
C     -1.7969608523     1.9488961447     0.7549867498
C     -0.3804547205     1.9919966511     0.7115087405
C      0.2795939647     0.8227096081     0.6814413830
C     -2.5232566731     0.7562899973     0.7773856103
H     -2.3340777709     2.8906280297     0.7900222218
H      0.1559451380     2.9298513692     0.7233999701
H     -3.6018125925     0.7809281584     0.8337215298
N      1.7650400176     0.8110760253     0.7420108134
O      2.2616778900    -0.2442284225     1.0437038324
O      2.3164695352     1.8464195580     0.4873966437
C     -1.8474815581    -0.4255658599     0.6951619628
H     -2.3748011044    -1.3704990928     0.6651388036
C     -0.3832322371    -0.4844481876     0.6104007769
H      0.0202377479    -1.1701222974     1.3571677032
Br     0.0896123462    -1.2994549689    -1.0837187912
