15
meta_th90_ph108 | OPTIMIZED | |g_proj|=4.525e-03 | E=-3010.3278828476 Ha
C     -0.8904316378     1.9872720309     0.9496635859
C      0.5002409071     1.9048453729     0.9144086666
C      1.1672693345     0.6962511580     0.6586056093
C      0.4786437595    -0.4371490581     0.4672177805
C     -1.6287605041     0.8584317760     0.7846462404
H     -1.3722639886     2.9338278548     1.1071875084
H      1.1002772291     2.7905349166     1.0640168652
H      0.9867959276    -1.3655888531     0.2634271515
H     -2.7110584803     0.8838799492     0.8341587550
N      2.6380958076     0.7311331015     0.6102361215
O      3.1744195492     1.1121762574     1.6193742882
O      3.1479324174     0.4070546183    -0.4276186047
C     -0.9912642637    -0.4400928788     0.5360228918
H     -1.3496206059    -1.1654838515     1.2679474635
Br    -1.6421087289    -1.0954934433    -1.1778366619
