15
attempt 1 | |g_proj| = 8.666e-04 | E = -3010.3328460881 Ha
C     -0.4876101695     1.2256832921     0.8561095970
C      0.8665489015     1.2395404601     0.8678112287
C      1.5305208883     0.0190450289     0.7234390010
H     -1.0557552645     2.1391096943     0.9524607442
H      1.4316311602     2.1471559916     0.9747461267
N      2.9913793995     0.0305312267     0.6900196877
O      3.5233922888    -0.1714990065     1.7451501651
O      3.4660699943     0.2190936322    -0.3947963731
C     -0.4474617857    -1.2424173823     0.5904157158
H     -0.9875743552    -2.1688004047     0.4967054899
C      0.9002147044    -1.2321395093     0.6029223012
H      1.4990414317    -2.1251185900     0.5218108918
C     -1.2473275984    -0.0142240089     0.6713308149
H     -2.0452785861    -0.1029996355     1.4112107670
Br    -2.1718717628     0.1845596891    -1.0438965445
