15
attempt 1 | |g_proj| = 7.291e-04 | E = -3010.3366973543 Ha
C     -0.4932152053     1.2195047583     0.8073446429
C      0.8621034168     1.2373640421     0.7776772462
C      1.5227627778     0.0113282147     0.7170432950
H     -1.0610408561     2.1372059440     0.8695780265
H      1.4301476368     2.1511396199     0.8040094377
N      2.9969328926     0.0447267415     0.6998646282
O      3.5394009055    -0.6927577494     1.4766281602
O      3.4805779786     0.8034869602    -0.0954496650
C     -0.4530136431    -1.2607167734     0.6449366426
H     -0.9907711425    -2.1939499306     0.5954870527
C      0.8985253417    -1.2446652992     0.6757484795
H      1.5012113309    -2.1393865567     0.6726958548
C     -1.2517991808    -0.0274743576     0.6668360936
H     -2.0580144087    -0.1039843276     1.4008123940
Br    -2.1578885982     0.2056991918    -1.0477726753
