15
attempt 1 | |g_proj| = 7.690e-03 | E = -3010.3238249825 Ha
C     -0.9008799955     2.0316253286     0.6861030223
C      0.4894792276     1.9467039078     0.7374516868
C      1.1534239985     0.7241663193     0.6367478920
C      0.4915546306    -0.4480631831     0.5261109981
C     -1.6173467453     0.8870889895     0.5784783900
H     -1.3840114344     2.9931965653     0.7311902665
H      1.0856937275     2.8397882677     0.8550210585
H      1.0134272725    -1.3964728107     0.4608722017
H     -2.6964967443     0.9229337064     0.5593657261
N      2.6336959666     0.7413732110     0.6472853402
O      3.1890338886    -0.1502977799     0.0630796750
O      3.1238717721     1.6479811562     1.2682439711
C     -0.9760473326    -0.4367044526     0.6145993461
H     -1.1848743198    -0.7821796594     1.6431771266
Br    -1.8123571802    -1.7195405781    -0.5362690041
15
attempt 2 | |g_proj| = 3.732e-03 | E = -3010.3241291149 Ha
C     -0.9147176026     2.0393189827     0.6952128575
C      0.4785831252     1.9474431220     0.7568229308
C      1.1489795194     0.7287163054     0.6423773585
C      0.4924463681    -0.4417241206     0.5125348770
C     -1.6243373242     0.8910142373     0.5756064210
H     -1.3967682867     3.0057241397     0.7147667360
H      1.0804957245     2.8357066468     0.8790124237
H      1.0251985989    -1.3826201929     0.4220310282
H     -2.7033995866     0.9121091512     0.5306653711
N      2.6297360192     0.7275731099     0.6465956842
O      3.1700227093    -0.1776460924     0.0716674584
O      3.1311415670     1.6290306614     1.2606278031
C     -0.9710961535    -0.4289877600     0.6169915005
H     -1.1434329594    -0.7540425530     1.6599199070
Br    -1.7946849854    -1.7300166449    -0.5133746556
15
attempt 3 | |g_proj| = 2.317e-03 | E = -3010.3241376445 Ha
C     -0.9133959711     2.0391509257     0.6940399714
C      0.4800523740     1.9467336219     0.7575363042
C      1.1501577614     0.7283023327     0.6418774624
C      0.4918479812    -0.4413109714     0.5138197177
C     -1.6236780531     0.8912053613     0.5749356903
H     -1.3975788060     3.0051026779     0.7152818259
H      1.0792830107     2.8365258244     0.8803605627
H      1.0244780926    -1.3812705152     0.4207712998
H     -2.7026931451     0.9121684845     0.5304067466
N      2.6302429293     0.7278471293     0.6465489942
O      3.1693832360    -0.1784462500     0.0714719980
O      3.1310382834     1.6299471349     1.2610407599
C     -0.9716083292    -0.4289658982     0.6160453911
H     -1.1432744717    -0.7536684135     1.6588772711
Br    -1.7960881580    -1.7317224473    -0.5115562893
15
attempt 4 | |g_proj| = 2.317e-03 | E = -3010.3241376334 Ha
C     -0.9133959715     2.0391509267     0.6940399717
C      0.4800523742     1.9467336228     0.7575363046
C      1.1501577619     0.7283023330     0.6418774627
C      0.4918479814    -0.4413109716     0.5138197179
C     -1.6236780539     0.8912053617     0.5749356906
H     -1.3975788067     3.0051026793     0.7152818262
H      1.0792830112     2.8365258257     0.8803605631
H      1.0244780931    -1.3812705159     0.4207713000
H     -2.7026931464     0.9121684849     0.5304067469
N      2.6302429305     0.7278471296     0.6465489945
O      3.1693832375    -0.1784462501     0.0714719980
O      3.1310382849     1.6299471357     1.2610407605
C     -0.9716083297    -0.4289658984     0.6160453914
H     -1.1432744722    -0.7536684139     1.6588772719
Br    -1.7960881588    -1.7317224481    -0.5115562895
15
attempt 5 | |g_proj| = 2.317e-03 | E = -3010.3241376334 Ha
C     -0.9133959719     2.0391509277     0.6940399720
C      0.4800523744     1.9467336237     0.7575363050
C      1.1501577624     0.7283023333     0.6418774630
C      0.4918479816    -0.4413109718     0.5138197181
C     -1.6236780547     0.8912053621     0.5749356909
H     -1.3975788074     3.0051026807     0.7152818265
H      1.0792830117     2.8365258270     0.8803605635
H      1.0244780936    -1.3812705166     0.4207713002
H     -2.7026931477     0.9121684853     0.5304067472
N      2.6302429317     0.7278471299     0.6465489948
O      3.1693832390    -0.1784462502     0.0714719980
O      3.1310382864     1.6299471365     1.2610407611
C     -0.9716083302    -0.4289658986     0.6160453917
H     -1.1432744727    -0.7536684143     1.6588772727
Br    -1.7960881596    -1.7317224489    -0.5115562897
15
attempt 6 | |g_proj| = 2.317e-03 | E = -3010.3241376325 Ha
C     -0.9133959723     2.0391509287     0.6940399723
C      0.4800523746     1.9467336246     0.7575363054
C      1.1501577629     0.7283023336     0.6418774633
C      0.4918479818    -0.4413109720     0.5138197183
C     -1.6236780555     0.8912053625     0.5749356912
H     -1.3975788081     3.0051026821     0.7152818268
H      1.0792830122     2.8365258283     0.8803605639
H      1.0244780941    -1.3812705173     0.4207713004
H     -2.7026931490     0.9121684857     0.5304067475
N      2.6302429329     0.7278471302     0.6465489951
O      3.1693832405    -0.1784462503     0.0714719980
O      3.1310382879     1.6299471373     1.2610407617
C     -0.9716083307    -0.4289658988     0.6160453920
H     -1.1432744732    -0.7536684147     1.6588772735
Br    -1.7960881604    -1.7317224497    -0.5115562899
15
attempt 1 | |g_proj| = 7.942e-03 | E = -3010.3238414126 Ha
C     -0.9010791830     2.0312688031     0.6869923833
C      0.4892913236     1.9464246475     0.7370071260
C      1.1536186902     0.7241784977     0.6369645115
C      0.4916622127    -0.4482864312     0.5279341188
C     -1.6176774025     0.8868196592     0.5802589838
H     -1.3841617524     2.9928880259     0.7320025018
H      1.0855639956     2.8393972286     0.8535009016
H      1.0137201477    -1.3967520437     0.4636644376
H     -2.6968856421     0.9237573759     0.5620314068
N      2.6343490854     0.7420442010     0.6467019371
O      3.1891464265    -0.1542036226     0.0690188841
O      3.1256891370     1.6529315741     1.2604613421
C     -0.9765335996    -0.4374284988     0.6156502931
H     -1.1879218507    -0.7859395874     1.6427219283
Br    -1.8106148566    -1.7155008411    -0.5434530593
15
attempt 2 | |g_proj| = 3.733e-03 | E = -3010.3241450176 Ha
C     -0.9150559018     2.0396636805     0.6962982057
C      0.4784424392     1.9478137884     0.7571242097
C      1.1488047971     0.7290735815     0.6426184646
C      0.4924403351    -0.4416093475     0.5135953057
C     -1.6242383714     0.8909619551     0.5771040641
H     -1.3968804985     3.0064301386     0.7149778225
H      1.0807496453     2.8360687570     0.8782838384
H      1.0251801953    -1.3825079808     0.4228970308
H     -2.7031967064     0.9112645517     0.5316958403
N      2.6295000966     0.7277111704     0.6461055560
O      3.1684622382    -0.1817976444     0.0767682978
O      3.1320871765     1.6323271134     1.2543372279
C     -0.9711150691    -0.4293032086     0.6179616791
H     -1.1443288796    -0.7571347569     1.6598712512
Br    -1.7926847634    -1.7273628055    -0.5181810925
