15
ortho_th0_ph0 | OPTIMIZED | |g_proj|=6.976e-04 | E=-3010.3527440411 Ha
C     -1.7943824790     1.9508548058     0.7404668748
C     -0.3769509372     1.9906622076     0.7143708305
C      0.2881026664     0.8231515491     0.6704433744
C     -2.5224953647     0.7607044848     0.7465177915
H     -2.3289112625     2.8943564329     0.7722285904
H      0.1619345051     2.9282243952     0.7442286542
H     -3.6026363232     0.7818494172     0.7814484167
N      1.7769776504     0.8293042714     0.7299908461
O      2.3002975759    -0.2509093909     0.8311249885
O      2.3070890767     1.9064416432     0.6887960503
C     -1.8444908107    -0.4230734848     0.7039765227
H     -2.3727270296    -1.3688430249     0.7002725734
C     -0.3785383518    -0.4853188091     0.6233312558
H      0.0355756129    -1.1497037281     1.3816381943
Br    -0.0023453822    -1.4032240752    -1.0391070320
