15
attempt 1 | |g_proj| = 5.956e-03 | E = -3010.3451366216 Ha
C     -1.7963481457     1.9461657813     0.7491057523
C     -0.3812026548     1.9887170858     0.7097607147
C      0.2821324752     0.8197613501     0.6922732295
C     -2.5241042485     0.7546052053     0.7785964821
H     -2.3355724762     2.8864054329     0.7843827783
H      0.1541814023     2.9263051284     0.7229548312
H     -3.6030917864     0.7795907242     0.8334555520
N      1.7673221957     0.8065084775     0.7460206212
O      2.2687590078    -0.2407697575     1.0684787404
O      2.3156593957     1.8375406210     0.4692027067
C     -1.8469218229    -0.4250346515     0.7046460377
H     -2.3750154825    -1.3678955979     0.6681247980
C     -0.3811449311    -0.4867327300     0.6034917940
H      0.0229887955    -1.1685997794     1.3569896366
Br     0.0788574027    -1.2720905729    -1.0977557200
15
attempt 2 | |g_proj| = 5.470e-03 | E = -3010.3452117637 Ha
C     -1.7956434514     1.9453663087     0.7528794930
C     -0.3801876740     1.9902140091     0.7143224892
C      0.2818315507     0.8215119228     0.6911233423
C     -2.5236694938     0.7531694214     0.7793581112
H     -2.3338525029     2.8868352897     0.7715293934
H      0.1560759705     2.9277346511     0.7205096158
H     -3.6021355351     0.7777185815     0.8347965241
N      1.7669104199     0.8073586651     0.7496947416
O      2.2610550092    -0.2355098399     1.0962360175
O      2.3209399157     1.8289451977     0.4485996885
C     -1.8490321482    -0.4284248604     0.7016436895
H     -2.3750748507    -1.3746791007     0.6760185918
C     -0.3832660886    -0.4850314073     0.6160160763
H      0.0317262836    -1.1861366363     1.3449070495
Br     0.0708217179    -1.2445954806    -1.1079068642
15
attempt 3 | |g_proj| = 3.080e-03 | E = -3010.3452535156 Ha
C     -1.7960135886     1.9450870042     0.7484529026
C     -0.3803535326     1.9893924514     0.7129830575
C      0.2813112953     0.8200419311     0.6978820411
C     -2.5234196007     0.7526012971     0.7798750129
H     -2.3343428344     2.8862926876     0.7715307593
H      0.1550793483     2.9277198485     0.7199488672
H     -3.6026083444     0.7778978446     0.8342602916
N      1.7665125579     0.8062086338     0.7503684551
O      2.2615631929    -0.2355883052     1.1002328582
O      2.3200598186     1.8264283653     0.4461801567
C     -1.8467073654    -0.4283522319     0.7092375118
H     -2.3740229580    -1.3727278542     0.6763960597
C     -0.3814126767    -0.4867608328     0.6111151103
H      0.0312966286    -1.1839151461     1.3430559825
Br     0.0695571780    -1.2398489670    -1.1117911023
15
attempt 4 | |g_proj| = 2.603e-03 | E = -3010.3452545308 Ha
C     -1.7960062366     1.9450238942     0.7483907622
C     -0.3803564818     1.9892931129     0.7130663901
C      0.2814281714     0.8201632712     0.6976884252
C     -2.5233909638     0.7525835169     0.7801145695
H     -2.3343926382     2.8862404344     0.7712527672
H      0.1549740985     2.9276087619     0.7198482944
H     -3.6024823830     0.7778251031     0.8342401573
N      1.7664864169     0.8057161666     0.7509783166
O      2.2615225987    -0.2354994721     1.1006355814
O      2.3200435293     1.8263672586     0.4457055149
C     -1.8467713485    -0.4283039052     0.7090257785
H     -2.3739632207    -1.3727352235     0.6767355768
C     -0.3815668025    -0.4864140740     0.6115853609
H      0.0315316963    -1.1840918417     1.3428708430
Br     0.0694426789    -1.2393002722    -1.1124103691
15
attempt 5 | |g_proj| = 2.603e-03 | E = -3010.3452545363 Ha
C     -1.7960062374     1.9450238951     0.7483907626
C     -0.3803564820     1.9892931138     0.7130663904
C      0.2814281715     0.8201632716     0.6976884255
C     -2.5233909650     0.7525835173     0.7801145699
H     -2.3343926393     2.8862404358     0.7712527676
H      0.1549740986     2.9276087633     0.7198482947
H     -3.6024823847     0.7778251035     0.8342401577
N      1.7664864177     0.8057161670     0.7509783170
O      2.2615225998    -0.2354994722     1.1006355819
O      2.3200435304     1.8263672595     0.4457055151
C     -1.8467713494    -0.4283039054     0.7090257788
H     -2.3739632218    -1.3727352241     0.6767355771
C     -0.3815668027    -0.4864140742     0.6115853612
H      0.0315316963    -1.1840918423     1.3428708436
Br     0.0694426789    -1.2393002728    -1.1124103696
15
attempt 6 | |g_proj| = 2.603e-03 | E = -3010.3452545235 Ha
C     -1.7960062382     1.9450238960     0.7483907630
C     -0.3803564822     1.9892931147     0.7130663907
C      0.2814281716     0.8201632720     0.6976884258
C     -2.5233909662     0.7525835177     0.7801145703
H     -2.3343926404     2.8862404372     0.7712527680
H      0.1549740987     2.9276087647     0.7198482950
H     -3.6024823864     0.7778251039     0.8342401581
N      1.7664864185     0.8057161674     0.7509783174
O      2.2615226009    -0.2354994723     1.1006355824
O      2.3200435315     1.8263672604     0.4457055153
C     -1.8467713503    -0.4283039056     0.7090257791
H     -2.3739632229    -1.3727352247     0.6767355774
C     -0.3815668029    -0.4864140744     0.6115853615
H      0.0315316963    -1.1840918429     1.3428708442
Br     0.0694426789    -1.2393002734    -1.1124103701
15
attempt 1 | |g_proj| = 5.959e-03 | E = -3010.3451365973 Ha
C     -1.7963482543     1.9461676082     0.7491079158
C     -0.3812033258     1.9887193966     0.7097601295
C      0.2821313484     0.8197629315     0.6922701778
C     -2.5241039183     0.7546063160     0.7785949789
H     -2.3355717909     2.8864076224     0.7843883691
H      0.1541821745     2.9263069835     0.7229554834
H     -3.6030913667     0.7795919012     0.8334554346
N      1.7673203824     0.8065106591     0.7460161152
O      2.2687561397    -0.2407721816     1.0684607490
O      2.3156590568     1.8375466047     0.4692168016
C     -1.8469220813    -0.4250340966     0.7046439774
H     -2.3750150883    -1.3678956957     0.6681213907
C     -0.3811445476    -0.4867336011     0.6034883509
H      0.0229860573    -1.1685982489     1.3569922853
Br     0.0788643409    -1.2721094820    -1.0977442047
15
attempt 2 | |g_proj| = 5.478e-03 | E = -3010.3452118627 Ha
C     -1.7956419967     1.9453651500     0.7528849699
C     -0.3801876288     1.9902159811     0.7143265947
C      0.2818334124     0.8215149588     0.6911212228
C     -2.5236695689     0.7531682451     0.7793582002
H     -2.3338507815     2.8868347380     0.7715161183
H      0.1560775550     2.9277348746     0.7205075615
H     -3.6021344243     0.7777161932     0.8347979845
N      1.7669109579     0.8073590084     0.7496975459
O      2.2610492004    -0.2355043761     1.0962642685
O      2.3209448845     1.8289365211     0.4485794277
C     -1.8490367296    -0.4284274327     0.7016387393
H     -2.3750751838    -1.3746860894     0.6760262253
C     -0.3832680365    -0.4850304062     0.6160248502
H      0.0317358813    -1.1861545303     1.3448992135
Br     0.0708115814    -1.2445661137    -1.1079149631
15
attempt 3 | |g_proj| = 3.075e-03 | E = -3010.3452535606 Ha
C     -1.7960122769     1.9450851066     0.7484595203
C     -0.3803524189     1.9893924638     0.7129863373
C      0.2813094438     0.8200419728     0.6978770666
C     -2.5234204548     0.7525992173     0.7798741316
H     -2.3343366328     2.8862950876     0.7715242620
H      0.1550854670     2.9277182906     0.7199456795
H     -3.6026086929     0.7778970713     0.8342614165
N      1.7665110938     0.8062100029     0.7503680132
O      2.2615573829    -0.2355811832     1.1002539069
O      2.3200594440     1.8264260030     0.4461663973
C     -1.8467112648    -0.4283570515     0.7092311536
H     -2.3740286652    -1.3727329706     0.6764014372
C     -0.3814125321    -0.4867611729     0.6111250172
H      0.0313042898    -1.1839264707     1.3430499432
Br     0.0695549358    -1.2398296405    -1.1117963185
