15
ortho_th27_ph54 | OPTIMIZED | |g_proj|=3.075e-03 | E=-3010.3452535606 Ha
C     -1.7960122769     1.9450851066     0.7484595203
C     -0.3803524189     1.9893924638     0.7129863373
C      0.2813094438     0.8200419728     0.6978770666
C     -2.5234204548     0.7525992173     0.7798741316
H     -2.3343366328     2.8862950876     0.7715242620
H      0.1550854670     2.9277182906     0.7199456795
H     -3.6026086929     0.7778970713     0.8342614165
N      1.7665110938     0.8062100029     0.7503680132
O      2.2615573829    -0.2355811832     1.1002539069
O      2.3200594440     1.8264260030     0.4461663973
C     -1.8467112648    -0.4283570515     0.7092311536
H     -2.3740286652    -1.3727329706     0.6764014372
C     -0.3814125321    -0.4867611729     0.6111250172
H      0.0313042898    -1.1839264707     1.3430499432
Br     0.0695549358    -1.2398296405    -1.1117963185
