15
attempt 1 | |g_proj| = 4.112e-03 | E = -3010.3360400642 Ha
C     -1.7898112253     1.9315948364     0.7321601699
C     -0.3792237232     1.9836004659     0.7222498423
C      0.2879949319     0.8159777007     0.7473470083
C     -2.5189996947     0.7401337985     0.7887631237
H     -2.3331957141     2.8679974170     0.7094837231
H      0.1518697129     2.9234957145     0.7078819686
H     -3.5983898115     0.7637841635     0.8362695103
N      1.7675293742     0.7880353260     0.7851417191
O      2.2471938218    -0.1762894326     1.3263341839
O      2.3319405102     1.7211251706     0.2839636647
C     -1.8427073390    -0.4387235554     0.7465716410
H     -2.3670491808    -1.3844735797     0.7198402639
C     -0.3747714992    -0.4886673180     0.6165860044
H      0.0750998839    -1.2383859604     1.2716439767
Br    -0.0109809552    -1.0247279877    -1.2045088025
