15
attempt 1 | |g_proj| = 5.828e-03 | E = -3010.3354949060 Ha
C     -0.4626042983     1.2514765179     0.4858512988
C      0.8899921542     1.2587780271     0.5926610200
C      1.5263559685     0.0202233488     0.7037859952
H     -1.0107446943     2.1767722850     0.3700227536
H      1.4695272827     2.1713242915     0.5985176602
N      3.0069988440     0.0242278085     0.8712686035
O      3.5800444442    -0.9521328266     0.4684331467
O      3.4625392432     1.0119557824     1.3805011246
C     -0.4583825356    -1.2419447585     0.6279441029
H     -1.0034820547    -2.1785114938     0.6262456557
C      0.8988316847    -1.2216054775     0.6924294981
H      1.4881317858    -2.1235033991     0.7411282660
C     -1.2311520076     0.0020829707     0.5655929896
H     -1.6872203741     0.0796069167     1.5748051477
Br    -2.7029161073    -0.1312295141    -0.6337475391
15
attempt 2 | |g_proj| = 4.452e-03 | E = -3010.3355299580 Ha
C     -0.4601893396     1.2498324047     0.4879079230
C      0.8912339801     1.2577128501     0.5925905168
C      1.5267747721     0.0193260603     0.7046999287
H     -1.0127812149     2.1710897175     0.3806134546
H      1.4718289957     2.1684639674     0.5996197774
N      3.0078574411     0.0280416677     0.8668510326
O      3.5775816543    -0.9545505570     0.4769389704
O      3.4693689569     1.0184435468     1.3665479546
C     -0.4584389820    -1.2402988122     0.6237488268
H     -1.0058747628    -2.1746808019     0.6324233120
C      0.8986189627    -1.2232774606     0.6929237306
H      1.4899697727    -2.1242517996     0.7402714312
C     -1.2314623071     0.0041645554     0.5736630401
H     -1.7012957906     0.0760285050     1.5762321050
Br    -2.6972727994    -0.1285233646    -0.6495922756
15
attempt 3 | |g_proj| = 3.785e-03 | E = -3010.3355659606 Ha
C     -0.4634402209     1.2505012280     0.4946221719
C      0.8895309010     1.2581717965     0.5936010025
C      1.5272490637     0.0197520568     0.7032702721
H     -1.0135920345     2.1747750430     0.3848383611
H      1.4722280903     2.1685176373     0.5993986534
N      3.0091024243     0.0260208022     0.8676205458
O      3.5792122809    -0.9578935864     0.4796427751
O      3.4694091262     1.0217743087     1.3567916054
C     -0.4590451003    -1.2413088803     0.6316833284
H     -1.0065800268    -2.1762116040     0.6330886593
C      0.8985511420    -1.2223505906     0.6913811776
H      1.4885378210    -2.1237291981     0.7396428439
C     -1.2321105237     0.0020409882     0.5724613363
H     -1.7057117317     0.0742929696     1.5712144730
Br    -2.6874218686    -0.1268324920    -0.6538174731
15
attempt 4 | |g_proj| = 2.245e-03 | E = -3010.3355778272 Ha
C     -0.4621426134     1.2509092021     0.4945577518
C      0.8900498158     1.2581169723     0.5944503517
C      1.5266367446     0.0194667051     0.7035057491
H     -1.0136833521     2.1739342444     0.3871520651
H      1.4717627669     2.1683656782     0.5995624673
N      3.0088176217     0.0269742572     0.8650551374
O      3.5786517977    -0.9584595022     0.4816796275
O      3.4703838610     1.0223329037     1.3542416490
C     -0.4589817308    -1.2411715051     0.6298167601
H     -1.0063900585    -2.1760977965     0.6345444310
C      0.8982958482    -1.2229060917     0.6926693768
H      1.4888292045    -2.1240042339     0.7393288983
C     -1.2314126131     0.0031963359     0.5744667375
H     -1.7086463948     0.0738704437     1.5720554467
Br    -2.6862515511    -0.1270071343    -0.6576467121
