15
attempt 1 | |g_proj| = 9.725e-04 | E = -3010.3611808094 Ha
C     -0.9166640836     2.0300748513     0.7465613755
C      0.4818352681     1.9619590924     0.7769684875
C      1.1577016101     0.7415365064     0.6450883014
C      0.4928611072    -0.4261315001     0.4897825133
C     -1.6320389459     0.8795921489     0.6038674164
H     -1.4102263899     2.9886945578     0.8256663175
H      1.0784571541     2.8594819884     0.9018397977
H      1.0318331295    -1.3600684532     0.3784959892
H     -2.7151259199     0.8923701951     0.5775029021
N      2.6467298495     0.7416475357     0.6623033592
O      3.1775027622    -0.3252502988     0.5090821173
O      3.1722481784     1.8111903461     0.8270586300
C     -0.9715824010    -0.4313953190     0.5590706681
H     -1.1715268708    -0.8440331019     1.5610482266
Br    -1.8138377083    -1.7180695392    -0.5928783826
