15
ortho_th27_ph90 | OPTIMIZED | |g_proj|=8.396e-03 | E=-3010.3408978282 Ha
C     -1.7960122785     1.9450851084     0.7484595211
C     -0.3803524193     1.9893924656     0.7129863379
C      0.2813094440     0.8200419736     0.6978770672
C     -2.5234204572     0.7525992181     0.7798741324
H     -2.3343366350     2.8862950904     0.7715242628
H      0.1550854672     2.9277182934     0.7199456801
H     -3.6026086963     0.7778970721     0.8342614173
N      1.7665110954     0.8062100037     0.7503680140
O      2.2615573851    -0.2355811834     1.1002539079
O      2.3200594462     1.8264260048     0.4461663977
C     -1.8467112666    -0.4283570519     0.7092311542
H     -2.3740286674    -1.3727329718     0.6764014378
C     -0.3814125325    -0.4867611733     0.6111250178
H      0.0313042898    -1.1839264719     1.3430499444
Br     0.0695549358    -1.2398296417    -1.1117963195
