15
meta_th54_ph288 | OPTIMIZED | |g_proj|=2.735e-03 | E=-3010.3423478736 Ha
C     -0.9050950312     2.0290405314     0.6868593467
C      0.4874218199     1.9529162361     0.7838979484
C      1.1591646767     0.7333156012     0.6330233783
C      0.4853106492    -0.4211776717     0.4484087465
C     -1.6286398395     0.8865130154     0.5224215374
H     -1.3927831432     2.9874771407     0.7431731559
H      1.0820971308     2.8397173072     0.9736896842
H      1.0164539392    -1.3542327546     0.3278928540
H     -2.7094484498     0.9070837147     0.4643096928
N      2.6399822545     0.7280725037     0.6739096373
O      3.1764716282    -0.1886508396     0.1157091024
O      3.1555037621     1.6452389771     1.2582099130
C     -0.9752943079    -0.4252988150     0.5668674629
H     -1.1168722800    -0.6757287527     1.6355555513
Br    -1.8661060648    -1.8426871614    -0.3624702694
