15
meta_th63_ph144 | OPTIMIZED | |g_proj|=8.184e-04 | E=-3010.3364399754 Ha
C     -0.9090177940     2.0047776535     0.7807636276
C      0.4823969892     1.9467999088     0.6899638175
C      1.1566683244     0.7126233106     0.6606308467
C      0.4924008409    -0.4573504972     0.6604064840
C     -1.6141769837     0.8434429899     0.8045604051
H     -1.3980048915     2.9613720751     0.8360418221
H      1.0741013063     2.8550667942     0.6494216778
H      1.0244746587    -1.3960438321     0.6497456383
H     -2.6911058296     0.8491222335     0.8774819318
N      2.6334690805     0.7351044518     0.6352555105
O      3.1707389330    -0.2361217024     1.0893236632
O      3.1425871068     1.7292589845     0.1855222227
C     -0.9738961991    -0.4681269177     0.6668893622
H     -1.3621834300    -1.2056382464     1.3712160508
Br    -1.6202853893    -1.0726882553    -1.0857653998
