15
attempt 1 | |g_proj| = 1.359e-02 | E = -3010.3377534077 Ha
C     -0.9129327993     2.0289137151     0.7127697764
C      0.4810964157     1.9371630053     0.7865842038
C      1.1624965275     0.7265559094     0.6490624705
C      0.4862295231    -0.4271383909     0.4877565677
C     -1.6500945702     0.8961025281     0.5483628537
H     -1.4059332339     2.9875552649     0.7568648182
H      1.0848702461     2.8165409384     0.9431985415
H      1.0364730752    -1.3540897011     0.3974909609
H     -2.7382640564     0.9258992910     0.4997626573
N      2.6541771884     0.7258832470     0.6509667887
O      3.2088227743    -0.2393077412     0.2008154260
O      3.1669823548     1.7040564968     1.1205941173
C     -0.9855183649    -0.4206498844     0.5785494359
H     -1.1596737439    -0.7275948425     1.6226783995
Br    -1.8205645996    -1.7782908303    -0.4839993026
15
attempt 2 | |g_proj| = 5.330e-03 | E = -3010.3383880165 Ha
C     -0.9067327813     2.0354088070     0.7040133034
C      0.4826216166     1.9473964301     0.7914040871
C      1.1537909616     0.7301900187     0.6480288826
C      0.4924534580    -0.4353434409     0.4809043734
C     -1.6234345448     0.8920752787     0.5349105350
H     -1.3975653479     2.9954752466     0.7592165290
H      1.0743661619     2.8365164833     0.9554199622
H      1.0198897525    -1.3763359919     0.3772565026
H     -2.7038645008     0.9160895407     0.4858197516
N      2.6350078889     0.7317114720     0.6524598649
O      3.1731932090    -0.2339948739     0.1844779962
O      3.1505230156     1.6968069201     1.1475143843
C     -0.9714448570    -0.4262376653     0.5769266934
H     -1.1387423073    -0.7181765486     1.6279522225
Br    -1.8318949868    -1.7899826664    -0.4548473690
