15
attempt 1 | |g_proj| = 2.312e-03 | E = -3010.3288748698 Ha
C     -1.7867595867     1.9502586253     0.7033087133
C     -0.3608521144     1.9792916531     0.7053066965
C      0.2933358003     0.8143674799     0.7013301324
C     -2.4992415691     0.7648081704     0.7172352497
H     -2.3180358860     2.8950498953     0.6998698235
H      0.1651565813     2.9180422473     0.7189505950
H     -3.5729230609     0.7834560903     0.7186863314
N      1.7747228482     0.8223691588     0.7607424889
O      2.3103183199    -0.2567639391     0.7699038320
O      2.2783763532     1.9073525410     0.8207225863
C     -1.8171838239    -0.4206467308     0.7613089312
H     -2.3423601460    -1.3615751597     0.8164394090
C     -0.3608811004    -0.4958407478     0.6744381307
H      0.0983603101    -1.2220235543     1.3449782820
Br    -0.2155338303    -1.2936689758    -1.1234932095
15
attempt 2 | |g_proj| = 7.799e-04 | E = -3010.3289244242 Ha
C     -1.7868617605     1.9487527055     0.6886903302
C     -0.3604507446     1.9793914533     0.7021507622
C      0.2937175985     0.8147530040     0.7042613342
C     -2.4995947325     0.7632518796     0.7256304817
H     -2.3174619376     2.8938441223     0.6615579527
H      0.1674791269     2.9172696505     0.7283875361
H     -3.5734856065     0.7833839673     0.7380797862
N      1.7749510987     0.8219348782     0.7682942152
O      2.3116406214    -0.2561819021     0.7591955111
O      2.2774404941     1.9060876777     0.8454848871
C     -1.8168151506    -0.4220428741     0.7705434385
H     -2.3407457977    -1.3638966369     0.8307518298
C     -0.3610586847    -0.4942738288     0.6709004599
H      0.1043829333    -1.2271332924     1.3280245453
Br    -0.2266383668    -1.2806640457    -1.1322250733
