15
para_th72_ph36 | OPTIMIZED | |g_proj|=7.112e-04 | E=-3010.3200628887 Ha
C     -0.5124957368     1.2292289221     0.8849979062
C      0.8451604270     1.2343144351     0.8572548676
C      1.4960046792     0.0118399283     0.7555970759
H     -1.0749949790     2.1526574773     0.9502034505
H      1.4092486829     2.1494774876     0.8813281379
N      2.9658868550     0.0444745464     0.6036988693
O      3.5820121667    -0.7555698210     1.2527329704
O      3.3625192012     0.8555423519    -0.1890526440
C     -0.4640934558    -1.2605149008     0.7323764220
H     -0.9964361226    -2.1965708706     0.6841320250
C      0.8853595010    -1.2469863152     0.7571958448
H      1.4855124258    -2.1453615350     0.7540564737
C     -1.2563584398    -0.0194492205     0.6807105530
H     -2.1727734041    -0.0726467245     1.2621336941
Br    -1.7886325620     0.1670847164    -1.2019260424
