15
ortho_th27_ph234 | OPTIMIZED | |g_proj|=3.542e-03 | E=-3010.3495772216 Ha
C     -1.7921630199     1.9538264699     0.7196943364
C     -0.3723348063     1.9883747216     0.7210004699
C      0.2977177174     0.8253667463     0.6651976907
C     -2.5181295222     0.7685570366     0.6961570701
H     -2.3263154457     2.8969053187     0.7389515208
H      0.1641790588     2.9240302517     0.7710933158
H     -3.5980001509     0.7867714552     0.7034008887
N      1.7855149563     0.8448899079     0.7202893090
O      2.3342536892    -0.2131964809     0.5475740232
O      2.2922167168     1.9091270456     0.9498235293
C     -1.8336992097    -0.4136126564     0.7121417413
H     -2.3597585049    -1.3567184411     0.7589872746
C     -0.3689192051    -0.4821044311     0.6593069110
H      0.0625937672    -1.1412147031     1.4112328054
Br    -0.1206569625    -1.5065254676    -0.9851228765
