15
attempt 1 | |g_proj| = 3.761e-04 | E = -3010.3533063148 Ha
C     -0.4700703755     1.2471091802     0.4495997223
C      0.8842027462     1.2530071216     0.6010488611
C      1.5305268666     0.0217407916     0.7186493585
H     -1.0278352536     2.1703704519     0.3533078737
H      1.4628557247     2.1642448059     0.6231061962
N      3.0182071173     0.0341553382     0.9044215079
O      3.5819352739    -1.0075626033     0.7024864832
O      3.4924850627     1.0829856888     1.2487973582
C     -0.4476494348    -1.2428267540     0.5398202478
H     -0.9900875462    -2.1783647003     0.5115567000
C      0.9068541147    -1.2242185170     0.6692145012
H      1.5030823037    -2.1241361757     0.7165441545
C     -1.2262367003    -0.0033402209     0.5390609428
H     -1.6015888977     0.0508965291     1.5758219441
Br    -2.8507617031    -0.0965404580    -0.4879961737
