15
para_th63_ph144 | OPTIMIZED | |g_proj|=1.827e-03 | E=-3010.3313065192 Ha
C     -0.4702741363     1.2357994502     0.7079687576
C      0.8791841860     1.2524728929     0.7653426456
C      1.5210831240     0.0126511528     0.7414025401
H     -1.0274642192     2.1585155206     0.7301576094
H      1.4570256774     2.1648934291     0.7881687854
N      3.0021182436     0.0338417639     0.7474310187
O      3.5220650282    -0.8126515448     1.4213992113
O      3.5053775608     0.9047684024     0.0903422236
C     -0.4550745322    -1.2568106684     0.5755752134
H     -0.9922155490    -2.1930921660     0.4833754702
C      0.8979042777    -1.2324155678     0.6898416090
H      1.4893596950    -2.1319497760     0.7014684628
C     -1.2360105346    -0.0155053641     0.6283006530
H     -1.8974141943    -0.0843758521     1.4946851393
Br    -2.4297453475     0.1113788056    -0.9000196851
