15
attempt 1 | |g_proj| = 4.117e-03 | E = -3010.3456421278 Ha
C     -1.7842826499     1.9553926342     0.7153718776
C     -0.3647060416     1.9873845635     0.7168016926
C      0.3009155468     0.8250698929     0.6448769996
C     -2.5170668848     0.7775114727     0.6748034456
H     -2.3122451595     2.8992944450     0.7595315377
H      0.1734465328     2.9230393185     0.7779265112
H     -3.5972956130     0.7963612436     0.6651539271
N      1.7868180533     0.8497040674     0.7082720366
O      2.3405132006    -0.1505543228     0.3333119058
O      2.2875333302     1.8638149915     1.1138699762
C     -1.8408732337    -0.4121213923     0.7031309404
H     -2.3759409532    -1.3513911510     0.7651135937
C     -0.3755062891    -0.4820873086     0.6683949016
H      0.0239320912    -1.1013303668     1.4635103078
Br    -0.0987428892    -1.5956112688    -0.9203415950
