15
meta_th63_ph342 | OPTIMIZED | |g_proj|=2.377e-03 | E=-3010.3363089275 Ha
C     -0.9196699017     2.0367426632     0.7333504468
C      0.4817987395     1.9729398128     0.6847110001
C      1.1478183015     0.7399436882     0.6508077949
C      0.4770036699    -0.4273815807     0.6569817496
C     -1.6288128268     0.8798522420     0.7273146118
H     -1.4039001500     2.9992732358     0.7762581078
H      1.0772100160     2.8801758529     0.6739915645
H      1.0108707295    -1.3658186377     0.6189203443
H     -2.7069966896     0.8897104053     0.7632453239
N      2.6282972408     0.7113614379     0.6372202574
O      3.1166603537    -0.3641378186     0.4248573941
O      3.1804087611     1.7622902876     0.8296755977
C     -0.9854567665    -0.4394568129     0.6808603535
H     -1.3454688296    -1.0473347027     1.5194025630
Br    -1.5215959024    -1.4265610344    -0.9061393632
