15
para_th27_ph288 | OPTIMIZED | |g_proj|=1.401e-03 | E=-3010.3477095585 Ha
C     -0.4668434040     1.2481175108     0.4703468131
C      0.8870475580     1.2568766555     0.5988193111
C      1.5325667878     0.0228249444     0.7119833012
H     -1.0228795483     2.1702017425     0.3698653920
H      1.4673372425     2.1677508871     0.6183819969
N      3.0185604312     0.0315532760     0.8896790276
O      3.5839305177    -0.9881409105     0.5999544224
O      3.4909231860     1.0570511421     1.3007275222
C     -0.4520697932    -1.2396225529     0.5793318213
H     -0.9962589054    -2.1753103024     0.5618167681
C      0.9047790162    -1.2209065742     0.6778994439
H      1.4992104288    -2.1208347288     0.7251397251
C     -1.2301032842    -0.0003040111     0.5514003729
H     -1.6596518361     0.0641730044     1.5695606272
Br    -2.7906290839    -0.1259096043    -0.5594668487
