15
para_th54_ph252 | OPTIMIZED | |g_proj|=6.929e-04 | E=-3010.3408523682 Ha
C     -0.4560950673     1.2548420393     0.4669211530
C      0.8959145249     1.2559671532     0.5863500145
C      1.5380882889     0.0204784869     0.7160673717
H     -1.0056937481     2.1764758073     0.3396055799
H      1.4804621931     2.1602728858     0.5728580047
N      3.0103126707     0.0137824263     0.8307523243
O      3.5792720043    -0.7882624224     0.1419592030
O      3.4645314393     0.7994915103     1.6171756757
C     -0.4552157839    -1.2186140984     0.6951932272
H     -1.0098873051    -2.1421071655     0.7393717158
C      0.8963331100    -1.2218617478     0.7468020925
H      1.4826824154    -2.1259452329     0.7998465194
C     -1.2329542049     0.0196457657     0.6034035545
H     -1.7966637232     0.1374329563     1.5403400644
Br    -2.6251674986    -0.1940778852    -0.7312068000
