15
attempt 1 | |g_proj| = 2.947e-03 | E = -3010.3249134247 Ha
C     -1.7759904815     1.9167956667     0.7365011712
C     -0.3704793953     1.9789899341     0.7347197750
C      0.2962319460     0.8113745509     0.7528891697
C     -2.5082046082     0.7264385944     0.7893160136
H     -2.3206812909     2.8489606528     0.7140814742
H      0.1562007050     2.9216670216     0.7287194991
H     -3.5862485235     0.7461993639     0.8451386722
N      1.7675648153     0.7848853273     0.8086778594
O      2.2156345905     0.0003056020     1.6063046895
O      2.3521992985     1.5446865974     0.0881733306
C     -1.8380425738    -0.4514972044     0.7493697867
H     -2.3682083357    -1.3949098770     0.7228951395
C     -0.3711137154    -0.4893034272     0.5979476763
H      0.1018014070    -1.2622133650     1.2003646556
Br    -0.1041647512    -0.8979026740    -1.2853709122
