15
para_th63_ph126 | OPTIMIZED | |g_proj|=1.705e-03 | E=-3010.3351493389 Ha
C     -0.4711334417     1.2269957135     0.7597541072
C      0.8775306332     1.2464951434     0.7733045557
C      1.5266409901     0.0070227298     0.7246030974
H     -1.0299072547     2.1458562912     0.8182833865
H      1.4559970251     2.1575555320     0.8012480841
N      2.9978055863     0.0373260214     0.7361788130
O      3.5140481187    -0.6333274738     1.5872904022
O      3.4994143744     0.7495382927    -0.0902115833
C     -0.4559536348    -1.2561509432     0.5802035909
H     -0.9982727491    -2.1875020594     0.4833808547
C      0.8984829196    -1.2372728862     0.6600678484
H      1.4877602730    -2.1370879118     0.6438816311
C     -1.2396883407    -0.0193264508     0.6575168716
H     -1.9564775296    -0.1041310691     1.4762284369
Br    -2.3403277012     0.1515295484    -0.9462904558
