15
meta_th18_ph0 | OPTIMIZED | |g_proj|=7.746e-04 | E=-3010.3535043004 Ha
C     -0.9243026844     2.0260711262     0.7662281815
C      0.4747014514     1.9625058524     0.7044273674
C      1.1541661588     0.7359340102     0.6572171096
C      0.4910956573    -0.4385704741     0.6250907644
C     -1.6348979566     0.8671041807     0.7342012082
H     -1.4178965376     2.9861126646     0.8246170755
H      1.0711781469     2.8688927796     0.6989939683
H      1.0317775045    -1.3763405133     0.5729611607
H     -2.7173121758     0.8744969093     0.7635024060
N      2.6422425899     0.7367997712     0.6412803308
O      3.1698328247    -0.3423505121     0.6246567189
O      3.1692636593     1.8181155547     0.6365106669
C     -0.9782538024    -0.4469896814     0.6415138209
H     -1.3172091230    -1.0583446201     1.4842605265
Br    -1.6062190003    -1.4118381341    -0.9040036804
