15
attempt 1 | |g_proj| = 6.792e-03 | E = -3010.3388354061 Ha
C     -0.9106361956     2.0281219967     0.7005486675
C      0.4823983790     1.9458446619     0.7905184830
C      1.1593281303     0.7290875914     0.6453838299
C      0.4857872085    -0.4258397469     0.4693473308
C     -1.6370808327     0.8887140533     0.5312451785
H     -1.3970178819     2.9888859448     0.7534269505
H      1.0846426503     2.8304061014     0.9611226418
H      1.0245552788    -1.3579440929     0.3672367585
H     -2.7190620890     0.9144020433     0.4766268805
N      2.6444868050     0.7289499364     0.6591324514
O      3.1836325826    -0.2218464675     0.1628522640
O      3.1590987693     1.6825880700     1.1782443066
C     -0.9788327741    -0.4236100678     0.5732485952
H     -1.1310940078    -0.7026227196     1.6296511013
Br    -1.8420392833    -1.8035382897    -0.4271277158
15
attempt 2 | |g_proj| = 7.464e-03 | E = -3010.3389334402 Ha
C     -0.9079616513     2.0344787731     0.6966409505
C      0.4807720432     1.9463650173     0.7937878503
C      1.1554672580     0.7335824467     0.6413666088
C      0.4932362398    -0.4308482952     0.4647834329
C     -1.6266416676     0.8924757790     0.5203549686
H     -1.4003739050     2.9933766229     0.7496737763
H      1.0719085250     2.8319039973     0.9674201210
H      1.0226212846    -1.3694965466     0.3479071290
H     -2.7084335476     0.9166757802     0.4711126675
N      2.6386929060     0.7318288929     0.6560441977
O      3.1788908749    -0.2102447809     0.1437445238
O      3.1528613845     1.6631713078     1.2142923221
C     -0.9714231997    -0.4252570172     0.5693497918
H     -1.1179542914    -0.6846456581     1.6342332792
Br    -1.8534955128    -1.8217672999    -0.3992538914
15
attempt 3 | |g_proj| = 5.393e-03 | E = -3010.3390199554 Ha
C     -0.9093160647     2.0289162364     0.6929569050
C      0.4826334252     1.9458914967     0.7908271352
C      1.1570359275     0.7297082292     0.6413202699
C      0.4874377917    -0.4272806658     0.4533822027
C     -1.6328744086     0.8885090938     0.5209442962
H     -1.3983581002     2.9891778567     0.7470041256
H      1.0783349907     2.8326072523     0.9729830919
H      1.0242260814    -1.3601275048     0.3430324113
H     -2.7141021324     0.9141166169     0.4645389267
N      2.6408398707     0.7264702334     0.6654224371
O      3.1816447276    -0.2025013167     0.1300043193
O      3.1515422681     1.6573913209     1.2283014791
C     -0.9752075118    -0.4236876521     0.5675131991
H     -1.1108074874    -0.6740962208     1.6347614288
Br    -1.8548626360    -1.8234959523    -0.3815344952
