15
para_th45_ph252 | OPTIMIZED | |g_proj|=1.099e-03 | E=-3010.3447912820 Ha
C     -0.4598840312     1.2513789983     0.4634898433
C      0.8933370306     1.2547023354     0.5882013349
C      1.5374669390     0.0209505907     0.7161062541
H     -1.0093730216     2.1752896289     0.3463430540
H      1.4747182179     2.1622365757     0.5833474297
N      3.0156601934     0.0211777016     0.8561170045
O      3.5893848830    -0.8820200156     0.3104092769
O      3.4717317593     0.9187318290     1.5113984424
C     -0.4528180649    -1.2279293932     0.6441952764
H     -1.0008295834    -2.1580230167     0.6652785986
C      0.9002141043    -1.2221174425     0.7220468299
H      1.4901441137    -2.1243599949     0.7711181708
C     -1.2321673673     0.0113891688     0.5855901243
H     -1.7428448494     0.1065954378     1.5565298050
Br    -2.7088210066    -0.1604819242    -0.6547317450
