15
attempt 1 | |g_proj| = 5.722e-04 | E = -3010.3191987460 Ha
C     -1.7538005527     1.9379101479     0.5589556142
C     -0.3553279839     1.9678802083     0.5167706532
C      0.3039115291     0.8023803144     0.6605213799
C     -2.5064182488     0.7753508325     0.7494704023
H     -2.2800541914     2.8720697172     0.4483124225
H      0.1849668210     2.8930436258     0.3960806947
H     -3.5842200459     0.8179548713     0.7887946635
N      1.7673257004     0.8131148391     0.7431406432
O      2.3762259972     0.7976499349    -0.2882345357
O      2.1757304347     0.8648009020     1.8741674241
C     -1.8540056991    -0.4018983842     0.8732264636
H     -2.3979234640    -1.3262628553     1.0033413170
C     -0.3842788432    -0.4928471350     0.7790365338
H      0.0378562307    -1.0896925853     1.5832811696
Br    -0.0834886241    -1.4469776380    -0.8971368120
