15
para_th54_ph126 | OPTIMIZED | |g_proj|=1.940e-03 | E=-3010.3400872104 Ha
C     -0.4718146087     1.2287910830     0.7181128209
C      0.8787330923     1.2464912864     0.7449685127
C      1.5274449229     0.0082395904     0.7249725969
H     -1.0305123243     2.1494030554     0.7621683432
H      1.4592152773     2.1567056470     0.7629195208
N      3.0054075073     0.0411459566     0.7575762848
O      3.5205841170    -0.7566237053     1.4924739817
O      3.5153605484     0.8784340957     0.0633925599
C     -0.4537894745    -1.2575555301     0.5724087300
H     -0.9957695933    -2.1906113032     0.4843336713
C      0.9008089330    -1.2380943831     0.6704732389
H      1.4924778211    -2.1377835341     0.6780176755
C     -1.2374188104    -0.0201101833     0.6403481370
H     -1.9180443855    -0.0992982189     1.4904758086
Br    -2.4267637546     0.1383866213    -0.8972022409
