15
attempt 1 | |g_proj| = 3.192e-04 | E = -3010.3266047978 Ha
C     -0.9357052884     1.9925642432     0.8291177270
C      0.4479315173     1.9202233290     0.6500216231
C      1.1394094501     0.7057162570     0.7042063954
C      0.4913838809    -0.4712701542     0.7980732440
C     -1.6396033350     0.8341986890     0.9007813042
H     -1.4323509094     2.9495595880     0.8797797738
H      1.0252606613     2.8199692286     0.4872607438
H      1.0346271220    -1.4082787637     0.8210397474
H     -2.7185433421     0.8439033610     0.9865739280
N      2.6157829150     0.7139528001     0.6061421045
O      3.1914656289    -0.2005263411     1.1319365862
O      3.0820299693     1.6247365077    -0.0250982264
C     -0.9797091085    -0.4707236045     0.6913282562
H     -1.4503921112    -1.2856420796     1.2337895137
Br    -1.2634203325    -0.7667841286    -1.2234950781
