15
para_th45_ph342 | OPTIMIZED | |g_proj|=1.247e-03 | E=-3010.3269806968 Ha
C     -0.4941507408     1.2679031891     0.7428958503
C      0.8611804261     1.2656421327     0.7162664708
C      1.4924486308     0.0206296735     0.7154704729
H     -1.0439617740     2.1994063960     0.7298852829
H      1.4475268127     2.1725987864     0.7081318528
N      2.9872494849     0.0122129609     0.6367926381
O      3.4823227796    -1.0384019014     0.3294611474
O      3.5291135259     1.0593596756     0.8648342095
C     -0.4945770747    -1.2307158511     0.8521149072
H     -1.0410826807    -2.1652497684     0.9073628355
C      0.8631534675    -1.2168722013     0.8065068585
H      1.4524666040    -2.1189295436     0.8355991067
C     -1.2655105671     0.0120501686     0.6806863184
H     -2.1569623036     0.0440124774     1.3074982800
Br    -1.8532972408    -0.1361257145    -1.1680664903
