15
meta_th81_ph144 | OPTIMIZED | |g_proj|=6.678e-04 | E=-3010.3306503492 Ha
C     -0.9100560733     2.0083435435     0.8046412683
C      0.4814453701     1.9547391275     0.6907665017
C      1.1516775150     0.7205917956     0.6524254331
C      0.4850744136    -0.4472500897     0.6662823707
C     -1.6172923819     0.8485735543     0.8145197322
H     -1.3965828848     2.9642010106     0.8714434045
H      1.0716919546     2.8639703257     0.6368456945
H      1.0164215594    -1.3848747624     0.6539539345
H     -2.6935283779     0.8548536869     0.8856506547
N      2.6262517414     0.7246660651     0.6167154532
O      3.1431383978    -0.2489328300     1.0853696316
O      3.1546211934     1.6953313324     0.1412911190
C     -0.9782387981    -0.4615075754     0.6747233877
H     -1.3756974801    -1.1989298646     1.3734539476
Br    -1.5507594269    -1.0921763692    -1.0966248723
