15
attempt 1 | |g_proj| = 2.319e-03 | E = -3010.3569733185 Ha
C     -0.4809433920     1.2434993517     0.5219241237
C      0.8748916137     1.2513614788     0.6565864578
C      1.5314540089     0.0222441435     0.7263304768
H     -1.0407980668     2.1704708433     0.4773633596
H      1.4503144836     2.1648832528     0.6918511317
N      3.0264526296     0.0462327520     0.8855631479
O      3.5474555141    -1.0119823684     1.1156037370
O      3.5491612884     1.1223137439     0.7733270480
C     -0.4409395091    -1.2496675559     0.5001155145
H     -0.9744209242    -2.1887185086     0.4271293668
C      0.9140492428    -1.2255556906     0.6480797582
H      1.5139024790    -2.1239484444     0.6881946714
C     -1.2296837040    -0.0154987131     0.5364411355
H     -1.6482114824    -0.0390052020     1.5562374239
Br    -2.8267649214    -0.0191086054    -0.5393077209
15
attempt 2 | |g_proj| = 1.046e-03 | E = -3010.3570026385 Ha
C     -0.4775792099     1.2403952156     0.5193420100
C      0.8777218477     1.2546592446     0.6553565468
C      1.5297071172     0.0239115791     0.7257812206
H     -1.0408222361     2.1637453914     0.4711531666
H      1.4520275286     2.1701748888     0.6918425815
N      3.0231053490     0.0478271400     0.8864311039
O      3.5434809063    -1.0114111669     1.1124888546
O      3.5456160609     1.1247153557     0.7802703470
C     -0.4429591278    -1.2540812301     0.4978513300
H     -0.9794238105    -2.1929873150     0.4282509791
C      0.9115906499    -1.2248739870     0.6463030849
H      1.5110580698    -2.1227220180     0.6887677257
C     -1.2270271506    -0.0180157393     0.5373993943
H     -1.6364661659    -0.0418086259     1.5609472484
Br    -2.8241105645    -0.0120082553    -0.5367459571
