15
attempt 1 | |g_proj| = 2.010e-03 | E = -3010.3520186017 Ha
C     -0.9102257486     2.0297099261     0.7390394490
C      0.4876014281     1.9570431564     0.7674166512
C      1.1592124670     0.7299441546     0.6691795678
C      0.4916072717    -0.4397309130     0.5657614510
C     -1.6226604019     0.8771138342     0.6424342868
H     -1.3987517935     2.9916885608     0.7852511140
H      1.0874768284     2.8577472637     0.8430855275
H      1.0222781501    -1.3802516363     0.4923707880
H     -2.7036694408     0.8913117915     0.6235857630
N      2.6462602814     0.7436725839     0.6405764476
O      3.1791120735    -0.3269391716     0.5402253165
O      3.1625216475     1.8255124785     0.7432758277
C     -0.9743256608    -0.4398898863     0.6193974556
H     -1.2431538948    -0.9582195644     1.5453664491
Br    -1.7751164730    -1.5571135815    -0.7455083890
15
attempt 2 | |g_proj| = 8.875e-04 | E = -3010.3521698035 Ha
C     -0.9098049498     2.0314194158     0.7480394673
C      0.4863961432     1.9553667356     0.8007252986
C      1.1583174518     0.7309436374     0.6717497655
C      0.4923792831    -0.4358489541     0.5325578293
C     -1.6214097914     0.8822700450     0.6053716936
H     -1.3973369015     2.9935408935     0.8072033076
H      1.0823725355     2.8528957945     0.9236846852
H      1.0249909771    -1.3740058297     0.4393726465
H     -2.7015300949     0.9003679802     0.5611629792
N      2.6442512952     0.7411364359     0.6392338757
O      3.1758676936    -0.3337206091     0.5833483725
O      3.1615959616     1.8258270104     0.6891865780
C     -0.9727457910    -0.4348228689     0.5884896345
H     -1.2072619185    -0.8986784717     1.5556518505
Br    -1.8079151585    -1.6350922136    -0.6743202739
