15
attempt 1 | |g_proj| = 1.586e-03 | E = -3010.3192531256 Ha
C     -1.7527367383     1.9497563243     0.6244263918
C     -0.3491303693     1.9781666088     0.6088650625
C      0.2995144412     0.8019684731     0.6415520178
C     -2.5064793666     0.7796265930     0.7104700427
H     -2.2723621849     2.8933733560     0.5779994301
H      0.1920479601     2.9132501614     0.5777071627
H     -3.5836442483     0.8160178076     0.7197952833
N      1.7684165770     0.8289353328     0.6989371909
O      2.3480986696     0.5176821304    -0.3035255798
O      2.2113503156     1.2043854292     1.7523751639
C     -1.8611999101    -0.4101185074     0.7872325085
H     -2.4077007269    -1.3399351426     0.8814369573
C     -0.3916810100    -0.4988005496     0.7329321169
H     -0.0229736677    -1.0425712464     1.6016387980
Br    -0.0250206856    -1.6072599705    -0.8221145087
