15
meta_th54_ph18 | OPTIMIZED | |g_proj|=1.536e-03 | E=-3010.3309083285 Ha
C     -0.9380498645     2.0097655721     0.7916117037
C      0.4535043356     1.9398164744     0.6502997379
C      1.1360608678     0.7193980254     0.6878952023
C      0.4847810609    -0.4579993050     0.7720159635
C     -1.6363223324     0.8499187101     0.8609233329
H     -1.4274964837     2.9720667704     0.8271078584
H      1.0387980734     2.8426688290     0.5293354846
H      1.0258635066    -1.3965019174     0.7786298700
H     -2.7125230890     0.8610749631     0.9471142338
N      2.6175411492     0.7175988621     0.6092670760
O      3.1557369386    -0.3347407645     0.8221061340
O      3.1209545793     1.7652747358     0.3053262351
C     -0.9838524949    -0.4642068096     0.7043946399
H     -1.4318381747    -1.2320304258     1.3332953459
Br    -1.2949913569    -0.9905047973    -1.1478651843
