15
meta_th36_ph54 | OPTIMIZED | |g_proj|=1.655e-03 | E=-3010.3374184115 Ha
C     -0.9341292333     2.0018966642     0.7932123321
C      0.4560582769     1.9334347034     0.6505155741
C      1.1445134905     0.7134230154     0.6840378962
C      0.4911770439    -0.4628995292     0.7573423227
C     -1.6396580688     0.8431111042     0.8610640497
H     -1.4283934121     2.9614092733     0.8340738448
H      1.0422846909     2.8363908765     0.5299257229
H      1.0346449370    -1.4002248596     0.7603279465
H     -2.7203889423     0.8521845894     0.9352031107
N      2.6278241601     0.7240127964     0.6181032954
O      3.1809989733    -0.3012822639     0.9117972261
O      3.1253472432     1.7565695099     0.2549469484
C     -0.9822508916    -0.4685227270     0.6915617834
H     -1.4176515453    -1.2345412355     1.3337258609
Br    -1.3722099965    -0.9533629532    -1.1443802392
