15
attempt 1 | |g_proj| = 1.267e-03 | E = -3010.3381857413 Ha
C     -0.4582884370     1.2597565871     0.5334749008
C      0.8934668354     1.2588933587     0.5798854744
C      1.5365847208     0.0186198979     0.7062340178
H     -1.0072562272     2.1812650845     0.4240660982
H      1.4818577824     2.1591421157     0.5250530193
N      3.0020232489     0.0058643775     0.7667841201
O      3.5495420609    -0.5843738373    -0.1223352302
O      3.4709907019     0.5801536240     1.7108462219
C     -0.4673052587    -1.2050533233     0.8056124333
H     -1.0262823120    -2.1205840797     0.9083418985
C      0.8848250872    -1.2155205509     0.7927948536
H      1.4640593737    -2.1202549334     0.8599545792
C     -1.2435557488     0.0277303411     0.6551234272
H     -1.9742448465     0.1333349099     1.4630811097
Br    -2.3404976535    -0.2314530923    -0.9434772098
