15
ortho_th45_ph324 | OPTIMIZED | |g_proj|=2.050e-03 | E=-3010.3391571483 Ha
C     -1.7814548937     1.9619833319     0.7404541603
C     -0.3649759696     1.9918911149     0.6806219789
C      0.2904242256     0.8243473914     0.6106772124
C     -2.5164341847     0.7827099081     0.7335693631
H     -2.3064642702     2.9054987517     0.8146329141
H      0.1759606947     2.9267655288     0.7232857702
H     -3.5935889428     0.8046052221     0.7891387586
N      1.7769186746     0.8374563307     0.7224249971
O      2.3185755750    -0.2174867823     0.5326335559
O      2.2847332171     1.8923801845     0.9878400079
C     -1.8510801461    -0.4080799267     0.6601287156
H     -2.3893895634    -1.3481416222     0.6598861223
C     -0.3873035511    -0.4834198204     0.6173253936
H     -0.0327997863    -1.0849539076     1.4501044260
Br     0.0233779725    -1.6010788993    -0.9329953333
