15
attempt 1 | |g_proj| = 4.123e-03 | E = -3010.3553315465 Ha
C     -0.9203027191     2.0228625136     0.7635248882
C      0.4773889098     1.9593314874     0.7253178221
C      1.1580045369     0.7347313619     0.6604059390
C      0.4961291358    -0.4395024002     0.5924315608
C     -1.6328513702     0.8663338949     0.7065674353
H     -1.4138885128     2.9807008365     0.8256713867
H      1.0745847064     2.8637907561     0.7444390774
H      1.0346203758    -1.3775132449     0.5195108076
H     -2.7165117321     0.8740101488     0.7234732978
N      2.6453482298     0.7434569513     0.6463521443
O      3.1835532715    -0.3300131680     0.6733373431
O      3.1667824445     1.8270978181     0.6211857634
C     -0.9739894092    -0.4472247308     0.6198329268
H     -1.2711724390    -1.0268949860     1.5044681083
Br    -1.6995287074    -1.4495682979    -0.8550608490
15
attempt 2 | |g_proj| = 1.752e-03 | E = -3010.3553554401 Ha
C     -0.9208006819     2.0227690427     0.7638434623
C      0.4780299461     1.9586674320     0.7238350275
C      1.1582586969     0.7330563053     0.6598420906
C      0.4950234184    -0.4406440903     0.5907764941
C     -1.6326426991     0.8651364990     0.7105719596
H     -1.4148256393     2.9824075750     0.8252024032
H      1.0749082384     2.8647732571     0.7446824143
H      1.0350714421    -1.3775122509     0.5210121131
H     -2.7161452473     0.8739326270     0.7239876527
N      2.6466745913     0.7434995805     0.6504731750
O      3.1833928291    -0.3308572695     0.6752903359
O      3.1656521226     1.8284618530     0.6155778514
C     -0.9747569794    -0.4479052556     0.6200702660
H     -1.2724136812    -1.0277725535     1.5021016427
Br    -1.6972596347    -1.4464138063    -0.8558092320
