15
para_th45_ph18 | OPTIMIZED | |g_proj|=1.251e-03 | E=-3010.3269452169 Ha
C     -0.5157574460     1.2363049727     0.8294991325
C      0.8418588336     1.2485364953     0.7822732594
C      1.4916509246     0.0196920983     0.7222242377
H     -1.0801320516     2.1603664446     0.8651977555
H      1.4130394927     2.1633323978     0.7866054156
N      2.9856204978     0.0497116394     0.6287876760
O      3.5447766770    -0.9892738890     0.8519512200
O      3.4630203066     1.1062539973     0.3137060626
C     -0.4735689733    -1.2626088355     0.7781866541
H     -1.0068649108    -2.2036041604     0.7783495858
C      0.8817383619    -1.2349037297     0.7596048415
H      1.4840949736    -2.1306045686     0.7720030997
C     -1.2648849460    -0.0226077497     0.6807585347
H     -2.1647874370    -0.0514119737     1.2950014438
Br    -1.8338850641     0.0583373389    -1.1787093147
