15
ortho_th27_ph144 | OPTIMIZED | |g_proj|=4.244e-03 | E=-3010.3400217649 Ha
C     -1.7829223153     1.9332970263     0.7184355119
C     -0.3675805442     1.9844468595     0.7249887391
C      0.2932197287     0.8165059317     0.7158721955
C     -2.5117564227     0.7450012714     0.7502726185
H     -2.3203021235     2.8726926956     0.7007348863
H      0.1665108633     2.9255413500     0.7384239024
H     -3.5904107065     0.7657026391     0.7841911104
N      1.7788969746     0.8203219363     0.7741573091
O      2.2902598833    -0.2215418272     1.0985294112
O      2.3150231986     1.8632922891     0.5167175305
C     -1.8383268913    -0.4396667800     0.7473969658
H     -2.3708802264    -1.3838306839     0.7477615876
C     -0.3717420371    -0.4935703350     0.6244703808
H      0.0912591010    -1.2084077979     1.3080996475
Br    -0.1347493839    -1.1953078251    -1.1603238097
