15
meta_th9_ph36 | OPTIMIZED | |g_proj|=1.705e-03 | E=-3010.3557945463 Ha
C     -0.9209111411     2.0258676647     0.7647800091
C      0.4777356622     1.9619718206     0.7207940245
C      1.1570742077     0.7366050344     0.6542784224
C      0.4940472854    -0.4370539747     0.5830692588
C     -1.6335771230     0.8690637225     0.7021214400
H     -1.4144576873     2.9848918546     0.8329416272
H      1.0744792853     2.8675201957     0.7418649569
H      1.0335411625    -1.3745664348     0.5107410183
H     -2.7170568311     0.8776884530     0.7173431167
N      2.6452513074     0.7409316287     0.6517613870
O      3.1786553254    -0.3354261785     0.6382472105
O      3.1690258604     1.8236305505     0.6641454400
C     -0.9750591184    -0.4443399692     0.6144863229
H     -1.2692148553    -1.0089484736     1.5090992938
Br    -1.6913666245    -1.4862369711    -0.8342158942
