15
attempt 1 | |g_proj| = 3.317e-03 | E = -3010.3268981683 Ha
C     -0.4901668504     1.2369662505     0.8821609947
C      0.8652817107     1.2393220533     0.9289926428
C      1.5223713641     0.0243222223     0.7259761727
H     -1.0547881039     2.1538773672     0.9950837618
H      1.4281042721     2.1430529358     1.0846754391
N      2.9876263447     0.0199975778     0.6818212456
O      3.5248593616     0.1384736955     1.7469228459
O      3.4568243775    -0.1427546241    -0.4101608053
C     -0.4463992756    -1.2330669067     0.5614400349
H     -0.9809850805    -2.1609505098     0.4548509260
C      0.9003061932    -1.2210448556     0.5529887533
H      1.4991596318    -2.1092190976     0.4152596944
C     -1.2467379136    -0.0055591900     0.6775578756
H     -2.0444049344    -0.0971588804     1.4160757369
Br    -2.1551318508     0.1612624398    -1.0482057052
15
attempt 2 | |g_proj| = 1.121e-03 | E = -3010.3270601325 Ha
C     -0.4865591586     1.2351118277     0.8728287920
C      0.8687773778     1.2358692229     0.8943417194
C      1.5256450945     0.0190395843     0.7114785087
H     -1.0488998122     2.1519335547     0.9955563235
H      1.4340734420     2.1391340112     1.0326696841
N      2.9897210555     0.0228098660     0.7026676158
O      3.4946186714     0.1302128342     1.7851553200
O      3.4911849817    -0.1151580067    -0.3781510555
C     -0.4448294370    -1.2341306828     0.5510113976
H     -0.9838055178    -2.1584010342     0.4362123023
C      0.9017629121    -1.2273804558     0.5441555114
H      1.4969738689    -2.1185055203     0.4087097406
C     -1.2441202536    -0.0067227463     0.6776840508
H     -2.0160921175    -0.1066798531     1.4414657392
Br    -2.2125318569     0.1803878763    -1.0103460323
