15
attempt 1 | |g_proj| = 2.341e-03 | E = -3010.3504764861 Ha
C     -1.7873133735     1.9566961732     0.7345420870
C     -0.3697045983     1.9884537911     0.7185870762
C      0.2963749121     0.8243408784     0.6357133236
C     -2.5210633402     0.7757515624     0.6936954103
H     -2.3152998457     2.9005394284     0.7914011696
H      0.1715615367     2.9224660103     0.7832155725
H     -3.6013079668     0.7961467608     0.6927090652
N      1.7846428551     0.8521347549     0.6962384870
O      2.3422803782    -0.1738070551     0.4066597496
O      2.2837037314     1.8956424879     1.0225601298
C     -1.8460855674    -0.4123504927     0.6855858859
H     -2.3785862612    -1.3547729986     0.7231960335
C     -0.3798823806    -0.4829964357     0.6492699804
H      0.0058669320    -1.0890291267     1.4633537521
Br    -0.0386879451    -1.6147389513    -0.9069996991
