15
attempt 1 | |g_proj| = 3.753e-03 | E = -3010.3289565091 Ha
C     -0.9165283209     2.0288246215     0.7501096300
C      0.4786582914     1.9436852808     0.7378084761
C      1.1482063219     0.7171850077     0.6816336534
C      0.4886714452    -0.4577814866     0.6535897236
C     -1.6218319120     0.8769887699     0.7065401867
H     -1.3950529623     2.9945832003     0.7725301237
H      1.0816168645     2.8399066819     0.7569873067
H      1.0151355563    -1.4044324924     0.6109189316
H     -2.6991950715     0.8980759212     0.7064242234
N      2.6312450185     0.7308898556     0.6074108985
O      3.1739996500    -0.3354283831     0.5160419326
O      3.1314334438     1.8207333669     0.6578505531
C     -0.9783177929    -0.4451623024     0.6871695407
H     -1.3277411329    -1.0387833546     1.5339080914
Br    -1.6021326706    -1.3676857126    -0.9074655880
15
attempt 2 | |g_proj| = 2.192e-03 | E = -3010.3289761370 Ha
C     -0.9151813030     2.0302644125     0.7493479445
C      0.4812432241     1.9430057813     0.7382381802
C      1.1502701584     0.7169023388     0.6803189691
C      0.4882543886    -0.4569942403     0.6548582626
C     -1.6216684800     0.8783900626     0.7078342126
H     -1.3974504403     2.9966889363     0.7719623993
H      1.0803599495     2.8419795012     0.7578210947
H      1.0158225698    -1.4022793616     0.6108205952
H     -2.6993517114     0.8969858413     0.7054487709
N      2.6325624275     0.7304089289     0.6079690901
O      3.1726063822    -0.3374243175     0.5141281593
O      3.1309749801     1.8206571644     0.6600429290
C     -0.9793102218    -0.4452782170     0.6865310588
H     -1.3264080028    -1.0408151973     1.5320767660
Br    -1.6045571912    -1.3708926548    -0.9059407444
15
attempt 3 | |g_proj| = 1.759e-03 | E = -3010.3289794862 Ha
C     -0.9155022238     2.0306718089     0.7493795216
C      0.4805548166     1.9442205032     0.7381429938
C      1.1496553780     0.7175902113     0.6804437431
C      0.4883420378    -0.4564958279     0.6542633803
C     -1.6214447538     0.8785974999     0.7076191264
H     -1.3972402053     2.9964122048     0.7714945202
H      1.0802036420     2.8428219027     0.7584199411
H      1.0162650936    -1.4016752205     0.6109933142
H     -2.6990357224     0.8969845173     0.7050887450
N      2.6322867446     0.7295701664     0.6078433147
O      3.1727688362    -0.3375611821     0.5129584573
O      3.1319602859     1.8195628982     0.6616501593
C     -0.9788600241    -0.4447264044     0.6863881619
H     -1.3258805532    -1.0418199909     1.5313843513
Br    -1.6059066213    -1.3725541036    -0.9046120379
