15
attempt 1 | |g_proj| = 1.872e-03 | E = -3010.3496244811 Ha
C     -1.7943833051     1.9494455629     0.7449534568
C     -0.3780326985     1.9907031149     0.7151548184
C      0.2860273364     0.8225113070     0.6778396596
C     -2.5231734391     0.7586841990     0.7573385458
H     -2.3308140520     2.8916410618     0.7769356509
H      0.1599806589     2.9285649803     0.7419634056
H     -3.6030946123     0.7815672669     0.8008463666
N      1.7747234844     0.8234866112     0.7310587950
O      2.2904038876    -0.2510400766     0.9056272533
O      2.3114224892     1.8915917342     0.6146010692
C     -1.8467851244    -0.4243777394     0.7016733074
H     -2.3755383276    -1.3699225187     0.6815039455
C     -0.3797473498    -0.4860072273     0.6139848497
H      0.0283018658    -1.1515410485     1.3778684044
Br     0.0272082940    -1.3708304874    -1.0516215506
