15
attempt 1 | |g_proj| = 5.261e-03 | E = -3010.3288986391 Ha
C     -0.4673281853     1.2457986028     0.6566279189
C      0.8804067988     1.2502997446     0.7709252007
C      1.5169031388     0.0110370649     0.7683608976
H     -1.0154430093     2.1759017060     0.6400130077
H      1.4630430134     2.1587213425     0.7763965801
N      3.0024287938     0.0335341793     0.7626121783
O      3.5331409927    -0.9257802709     1.2518345411
O      3.4970828804     1.0173703472     0.2812013612
C     -0.4561740825    -1.2512624038     0.5720834601
H     -0.9971699523    -2.1837806091     0.4638223461
C      0.8938298870    -1.2314850786     0.7204501309
H      1.4809246529    -2.1329705987     0.7187440187
C     -1.2334731994    -0.0077361005     0.6087391887
H     -1.8324407830    -0.0421520353     1.5259971584
Br    -2.4998116628     0.0300245879    -0.8523683296
15
attempt 2 | |g_proj| = 3.472e-03 | E = -3010.3289576668 Ha
C     -0.4694489389     1.2475469332     0.6569221168
C      0.8792529875     1.2520493514     0.7632302451
C      1.5150274203     0.0119290241     0.7656069949
H     -1.0191760496     2.1765792103     0.6373998046
H      1.4609685810     2.1614970166     0.7800311504
N      3.0036868662     0.0330675185     0.7664268537
O      3.5357882376    -0.9274944102     1.2502436322
O      3.5029599030     1.0140362618     0.2856832128
C     -0.4564178950    -1.2514896663     0.5764207299
H     -0.9944189575    -2.1852724307     0.4676195399
C      0.8949959201    -1.2329131207     0.7117934309
H      1.4842908268    -2.1357704859     0.7224458297
C     -1.2333544068    -0.0067217952     0.6073775960
H     -1.8324296230    -0.0457124439     1.5219058247
Br    -2.5058055850     0.0361895155    -0.8476672983
15
attempt 3 | |g_proj| = 2.215e-03 | E = -3010.3289747723 Ha
C     -0.4694436310     1.2473657533     0.6540905008
C      0.8794523229     1.2519724924     0.7624687127
C      1.5172946307     0.0121641378     0.7626819745
H     -1.0208171775     2.1763624497     0.6367109457
H      1.4597020250     2.1622368484     0.7804403778
N      3.0053077912     0.0321078257     0.7657933944
O      3.5341265845    -0.9302372514     1.2512399380
O      3.5047390551     1.0151125623     0.2890266260
C     -0.4549864286    -1.2517289103     0.5724192092
H     -0.9941020943    -2.1860895804     0.4713812492
C      0.8961530184    -1.2318974605     0.7121154729
H      1.4844271733    -2.1343039150     0.7229148681
C     -1.2332332973    -0.0076186740     0.6069854320
H     -1.8332629771    -0.0470494569     1.5222720912
Br    -2.5094377049     0.0391236575    -0.8451011243
15
attempt 4 | |g_proj| = 1.967e-03 | E = -3010.3289789861 Ha
C     -0.4696328583     1.2469428798     0.6537372381
C      0.8794445106     1.2522705533     0.7606621780
C      1.5168429642     0.0128979711     0.7614522504
H     -1.0211803436     2.1753356647     0.6357965846
H      1.4589757264     2.1628984305     0.7805904932
N      3.0053886243     0.0319463142     0.7665990944
O      3.5335978277    -0.9309136514     1.2507363149
O      3.5074368664     1.0145289638     0.2921058069
C     -0.4551544447    -1.2515925691     0.5727211289
H     -0.9931287431    -2.1865128988     0.4733803473
C      0.8961260306    -1.2315473522     0.7100088714
H      1.4852995196    -2.1340842321     0.7234950887
C     -1.2335197538    -0.0075280405     0.6058517918
H     -1.8320573560    -0.0482858122     1.5214479075
Br    -2.5125192762     0.0411642575    -0.8431454234
