15
para_th63_ph162 | OPTIMIZED | |g_proj|=1.967e-03 | E=-3010.3289789861 Ha
C     -0.4696328583     1.2469428798     0.6537372381
C      0.8794445106     1.2522705533     0.7606621780
C      1.5168429642     0.0128979711     0.7614522504
H     -1.0211803436     2.1753356647     0.6357965846
H      1.4589757264     2.1628984305     0.7805904932
N      3.0053886243     0.0319463142     0.7665990944
O      3.5335978277    -0.9309136514     1.2507363149
O      3.5074368664     1.0145289638     0.2921058069
C     -0.4551544447    -1.2515925691     0.5727211289
H     -0.9931287431    -2.1865128988     0.4733803473
C      0.8961260306    -1.2315473522     0.7100088714
H      1.4852995196    -2.1340842321     0.7234950887
C     -1.2335197538    -0.0075280405     0.6058517918
H     -1.8320573560    -0.0482858122     1.5214479075
Br    -2.5125192762     0.0411642575    -0.8431454234
