15
attempt 1 | |g_proj| = 3.753e-03 | E = -3010.3305077217 Ha
C     -0.4526666180     1.2610009195     0.5362491030
C      0.8958981274     1.2652856400     0.5912325969
C      1.5257285470     0.0166426475     0.7053946159
H     -0.9936583051     2.1867165694     0.4219978155
H      1.4857325215     2.1699774630     0.5556074508
N      2.9967153382     0.0082658057     0.7856745772
O      3.5486750636    -0.7366414302     0.0227794807
O      3.4630645634     0.7600181341     1.5978790010
C     -0.4744015137    -1.2224412969     0.7743849575
H     -1.0285405103    -2.1507416071     0.8508562819
C      0.8810519017    -1.2177239774     0.7633897031
H      1.4582166469    -2.1237492543     0.8191282701
C     -1.2414331900     0.0215440322     0.6349620116
H     -1.9074679746     0.1262801105     1.5013210354
Br    -2.3909952716    -0.2169132769    -0.8954171864
15
attempt 2 | |g_proj| = 5.516e-03 | E = -3010.3306031755 Ha
C     -0.4606674531     1.2619519720     0.5613159056
C      0.8904762679     1.2589067219     0.6024118254
C      1.5294701120     0.0142390625     0.7100811701
H     -1.0118489764     2.1825112959     0.4566353012
H      1.4901417555     2.1556748232     0.5735532683
N      3.0073327870     0.0094154670     0.7717741044
O      3.5444510409    -0.7825344172     0.0458265934
O      3.4934107967     0.8070121498     1.5270413199
C     -0.4727904209    -1.2126884229     0.7876135403
H     -1.0358522652    -2.1326234143     0.8542246392
C      0.8850562602    -1.2186295862     0.7703846256
H      1.4657416760    -2.1251679640     0.8163863427
C     -1.2501585496     0.0247010614     0.6466358844
H     -1.9669545488     0.1180625265     1.4733889389
Br    -2.3418891521    -0.2133107964    -0.9318337407
15
attempt 3 | |g_proj| = 1.976e-03 | E = -3010.3307306581 Ha
C     -0.4564620867     1.2629131593     0.5647103829
C      0.8931356343     1.2656861754     0.6095950634
C      1.5240167654     0.0171473583     0.7100721857
H     -0.9996609362     2.1885562804     0.4643026779
H      1.4847081949     2.1691055037     0.5755252565
N      2.9996721297     0.0088112317     0.7658691523
O      3.5349084682    -0.7893522157     0.0462212476
O      3.4874090679     0.8100056647     1.5160403903
C     -0.4774054682    -1.2195615329     0.7880201877
H     -1.0325336771    -2.1468455105     0.8611480837
C      0.8789417588    -1.2163493043     0.7717593240
H      1.4563133351    -2.1232491968     0.8177850085
C     -1.2462472957     0.0227663173     0.6451727044
H     -1.9577367355     0.1165693417     1.4748135830
Br    -2.3231398212    -0.2186827930    -0.9455955246
