15
attempt 1 | |g_proj| = 1.055e-03 | E = -3010.3327590398 Ha
C     -1.7854812190     1.9470926203     0.6639043410
C     -0.3593338308     1.9820717848     0.6961811104
C      0.3010664788     0.8201363484     0.7089333512
C     -2.4978355643     0.7612760779     0.6957756107
H     -2.3189455671     2.8904811655     0.6248984074
H      0.1677754825     2.9212657435     0.7346129868
H     -3.5733181468     0.7768389963     0.6909862714
N      1.7809538424     0.8327600122     0.7706225038
O      2.3227808304    -0.2228130725     0.5642947669
O      2.2796280489     1.8879394780     1.0458819692
C     -1.8115933698    -0.4208066454     0.7826665096
H     -2.3337466451    -1.3625290132     0.8651883807
C     -0.3538888854    -0.4904208658     0.6878351622
H      0.1166137457    -1.2128066872     1.3528320355
Br    -0.2881760973    -1.3260091975    -1.0948854242
