15
ortho_th63_ph18 | OPTIMIZED | |g_proj|=4.198e-03 | E=-3010.3359635812 Ha
C     -1.7995414024     1.9482461781     0.7498164439
C     -0.3803372681     1.9912541883     0.7164615834
C      0.2731177331     0.8234772823     0.7025140725
C     -2.5106472052     0.7501921877     0.7970548661
H     -2.3403409686     2.8891449228     0.7552040382
H      0.1520831044     2.9275282883     0.7048786050
H     -3.5842614741     0.7714477921     0.8606708723
N      1.7489904965     0.7977663321     0.7722998358
O      2.2201924940    -0.2031236066     1.2470984955
O      2.3117515297     1.7654544292     0.3470210783
C     -1.8311498162    -0.4295230437     0.7111715147
H     -2.3505043929    -1.3763015710     0.6850758081
C     -0.3746829361    -0.4821493206     0.6207202476
H      0.0622250197    -1.2179737408     1.2928786293
Br     0.0496042289    -1.1709636194    -1.1731381542
