15
ortho_th27_ph306 | OPTIMIZED | |g_proj|=3.133e-03 | E=-3010.3503276171 Ha
C     -1.7875295099     1.9590379980     0.7447363650
C     -0.3719186560     1.9847964606     0.7178370097
C      0.2927004046     0.8191850605     0.6364314860
C     -2.5217729558     0.7778084501     0.7102663282
H     -2.3152963936     2.9037914115     0.8017902828
H      0.1687764832     2.9184106967     0.7694457436
H     -3.6012534530     0.8035608787     0.7332021190
N      1.7813239301     0.8478883990     0.6973036540
O      2.3385889955    -0.1949893709     0.4773309552
O      2.2807501928     1.9097710626     0.9562646587
C     -1.8495007595    -0.4106653840     0.6693511845
H     -2.3829038885    -1.3524991460     0.6910939819
C     -0.3832122161    -0.4871538123     0.6375986294
H     -0.0171835784    -1.0925001251     1.4634218599
Br     0.0149304673    -1.6019657874    -0.9163462296
