15
attempt 1 | |g_proj| = 4.918e-04 | E = -3010.3542479418 Ha
C     -1.7941575386     1.9553497376     0.7520397596
C     -0.3765637995     1.9907838657     0.7234409978
C      0.2897306429     0.8251128596     0.6489743455
C     -2.5239404713     0.7680729678     0.7296297418
H     -2.3265720122     2.8987007346     0.8057767794
H      0.1633680253     2.9265678163     0.7736137104
H     -3.6044102552     0.7897055116     0.7555166058
N      1.7798905344     0.8414985739     0.7066499933
O      2.3173051332    -0.2357267594     0.6936765272
O      2.2986194054     1.9234141567     0.7687355131
C     -1.8462656144    -0.4166674146     0.6802244728
H     -2.3756942078    -1.3618755779     0.6743247610
C     -0.3797900228    -0.4834517186     0.6235898903
H      0.0129470246    -1.1120123966     1.4217667027
Br     0.0120322283    -1.5249955747    -0.9682317817
