15
meta_th9_ph72 | OPTIMIZED | |g_proj|=1.752e-03 | E=-3010.3553554401 Ha
C     -0.9208006819     2.0227690427     0.7638434623
C      0.4780299461     1.9586674320     0.7238350275
C      1.1582586969     0.7330563053     0.6598420906
C      0.4950234184    -0.4406440903     0.5907764941
C     -1.6326426991     0.8651364990     0.7105719596
H     -1.4148256393     2.9824075750     0.8252024032
H      1.0749082384     2.8647732571     0.7446824143
H      1.0350714421    -1.3775122509     0.5210121131
H     -2.7161452473     0.8739326270     0.7239876527
N      2.6466745913     0.7434995805     0.6504731750
O      3.1833928291    -0.3308572695     0.6752903359
O      3.1656521226     1.8284618530     0.6155778514
C     -0.9747569794    -0.4479052556     0.6200702660
H     -1.2724136812    -1.0277725535     1.5021016427
Br    -1.6972596347    -1.4464138063    -0.8558092320
