15
attempt 1 | |g_proj| = 1.671e-04 | E = -3010.3578460985 Ha
C     -0.9127514033     2.0341802052     0.7221844567
C      0.4853049237     1.9647679613     0.7624211396
C      1.1574124848     0.7428108212     0.6310215297
C      0.4884604813    -0.4204140628     0.4652940656
C     -1.6316452598     0.8850663828     0.5836692840
H     -1.4033782013     2.9933942452     0.7965936695
H      1.0818178017     2.8607285238     0.8979395860
H      1.0242592319    -1.3539905963     0.3448651777
H     -2.7144678893     0.8989202122     0.5698397280
N      2.6432909500     0.7324304603     0.6790480387
O      3.1725277580    -0.3053900260     0.3866877713
O      3.1675083274     1.7643392310     1.0076595372
C     -0.9729648339    -0.4262796200     0.5578263974
H     -1.1563951332    -0.7904996137     1.5823279426
Br    -1.8208124974    -1.7784651039    -0.5159205959
