15
attempt 1 | |g_proj| = 5.650e-03 | E = -3010.3590933012 Ha
C     -0.9178025290     2.0291751758     0.7501021562
C      0.4808287626     1.9612971845     0.7703238094
C      1.1568784084     0.7407212213     0.6447490201
C      0.4926546325    -0.4277975831     0.4994718293
C     -1.6324895592     0.8779144781     0.6178872988
H     -1.4112701195     2.9878815221     0.8301786561
H      1.0773505680     2.8597100608     0.8861520576
H      1.0314752701    -1.3612021608     0.3826052670
H     -2.7153366044     0.8910238772     0.5914088947
N      2.6455588207     0.7396529212     0.6640599770
O      3.1769633169    -0.3305539804     0.5391869279
O      3.1697655574     1.8138262520     0.7964125062
C     -0.9725012113    -0.4335922997     0.5590686097
H     -1.1769919153    -0.8531132386     1.5618186362
Br    -1.7969166547    -1.6933444068    -0.6219679134
15
attempt 2 | |g_proj| = 3.285e-03 | E = -3010.3591311635 Ha
C     -0.9173449806     2.0302421591     0.7523858629
C      0.4815792490     1.9622109435     0.7709148094
C      1.1580340311     0.7412886589     0.6472764056
C      0.4933977929    -0.4266644908     0.4979065665
C     -1.6326876491     0.8794228281     0.6171196533
H     -1.4112645753     2.9883183351     0.8320862040
H      1.0786335738     2.8617882864     0.8773218437
H      1.0307725212    -1.3620321164     0.3897719930
H     -2.7160740710     0.8890512456     0.6005980089
N      2.6461818562     0.7410991521     0.6619934254
O      3.1751455505    -0.3319568240     0.5520172016
O      3.1726522630     1.8158532016     0.7845298151
C     -0.9716462323    -0.4318201563     0.5649656513
H     -1.1845357559    -0.8673068044     1.5563580956
Br    -1.7946768290    -1.6878953903    -0.6337877991
15
attempt 3 | |g_proj| = 1.727e-03 | E = -3010.3591497375 Ha
C     -0.9177343855     2.0297077980     0.7520247210
C      0.4812630225     1.9627582746     0.7684862011
C      1.1572229873     0.7412029469     0.6460331049
C      0.4925519668    -0.4272301354     0.5018820258
C     -1.6324422930     0.8778230400     0.6213824709
H     -1.4111259911     2.9885949244     0.8323673258
H      1.0785659782     2.8618864274     0.8769975112
H      1.0309426185    -1.3613918731     0.3898091718
H     -2.7156273030     0.8897059363     0.6008959108
N      2.6461717425     0.7407262796     0.6635538524
O      3.1759874141    -0.3321807898     0.5532581859
O      3.1723389349     1.8156718332     0.7821216744
C     -0.9721392399    -0.4331195548     0.5640122710
H     -1.1844501508    -0.8670065808     1.5541677022
Br    -1.7933585557    -1.6855494936    -0.6355343874
