15
meta_th9_ph342 | OPTIMIZED | |g_proj|=1.727e-03 | E=-3010.3591497375 Ha
C     -0.9177343855     2.0297077980     0.7520247210
C      0.4812630225     1.9627582746     0.7684862011
C      1.1572229873     0.7412029469     0.6460331049
C      0.4925519668    -0.4272301354     0.5018820258
C     -1.6324422930     0.8778230400     0.6213824709
H     -1.4111259911     2.9885949244     0.8323673258
H      1.0785659782     2.8618864274     0.8769975112
H      1.0309426185    -1.3613918731     0.3898091718
H     -2.7156273030     0.8897059363     0.6008959108
N      2.6461717425     0.7407262796     0.6635538524
O      3.1759874141    -0.3321807898     0.5532581859
O      3.1723389349     1.8156718332     0.7821216744
C     -0.9721392399    -0.4331195548     0.5640122710
H     -1.1844501508    -0.8670065808     1.5541677022
Br    -1.7933585557    -1.6855494936    -0.6355343874
