15
para_th81_ph18 | OPTIMIZED | |g_proj|=1.242e-03 | E=-3010.3157418375 Ha
C     -0.5117727669     1.2383391714     0.8557189867
C      0.8450932851     1.2409182437     0.8295815121
C      1.4900317768     0.0147127569     0.7479439321
H     -1.0702616391     2.1651254836     0.9045398704
H      1.4110679390     2.1564385835     0.8403487236
N      2.9682653299     0.0456308279     0.6142865517
O      3.5582824934    -0.8933387309     1.0743137055
O      3.3975166575     1.0020656364     0.0285639752
C     -0.4677340353    -1.2591151618     0.7492315987
H     -1.0004475885    -2.1968979614     0.7097001064
C      0.8841394186    -1.2393647670     0.7637384737
H      1.4792595330    -2.1394364417     0.7614178923
C     -1.2546701640    -0.0174762983     0.6948566777
H     -2.1628417801    -0.0596978768     1.2854723634
Br    -1.8000092239     0.0896170120    -1.1942747697
