15
attempt 1 | |g_proj| = 1.040e-03 | E = -3010.3223793091 Ha
C     -0.5182834379     1.2371349866     0.8530294529
C      0.8396504240     1.2457481982     0.8076045021
C      1.4870982015     0.0180891576     0.7332852630
H     -1.0808643308     2.1621186891     0.8971949819
H      1.4088569974     2.1608066441     0.8094005392
N      2.9753845294     0.0458924327     0.6009963191
O      3.5438147019    -0.9799897869     0.8572251678
O      3.4372693395     1.0866446314     0.2189077448
C     -0.4764202717    -1.2608381766     0.7930081389
H     -1.0088568890    -2.2014367145     0.7841041115
C      0.8779667196    -1.2357487478     0.7826333083
H      1.4786356689    -2.1323136176     0.8009344066
C     -1.2646049744    -0.0199422091     0.6824534435
H     -2.1890361099    -0.0510330177     1.2554710746
Br    -1.7446913334     0.0723880082    -1.2108088545
