15
meta_th36_ph342 | OPTIMIZED | |g_proj|=1.904e-03 | E=-3010.3484556422 Ha
C     -0.9130238762     2.0375146243     0.7332341152
C      0.4870916221     1.9689138404     0.7293406469
C      1.1561225334     0.7409166539     0.6400636606
C      0.4845267146    -0.4249358495     0.5316134757
C     -1.6295378884     0.8852176128     0.6455767791
H     -1.4005587797     2.9989173426     0.7984147666
H      1.0851204653     2.8710588993     0.8023403451
H      1.0169562213    -1.3625788350     0.4338151254
H     -2.7109153491     0.8980110620     0.6514898183
N      2.6419848714     0.7264693841     0.6749554756
O      3.1607727695    -0.3364539153     0.4682181983
O      3.1721842636     1.7827966242     0.8970435796
C     -0.9793425619    -0.4309262978     0.5929070989
H     -1.2338599539    -0.8981935246     1.5593817933
Br    -1.7293542852    -1.6551285051    -0.6869370570
