15
para_th45_ph306 | OPTIMIZED | |g_proj|=1.922e-03 | E=-3010.3346445178 Ha
C     -0.4580979429     1.2576050027     0.5250331587
C      0.8924824728     1.2636539141     0.6015518096
C      1.5284338093     0.0200893917     0.7083177283
H     -1.0060943137     2.1806477287     0.4157027101
H      1.4798523252     2.1700447346     0.5898732479
N      3.0062097849     0.0162361174     0.8100892778
O      3.5617419162    -0.8540468843     0.1963448575
O      3.4775007407     0.8885397992     1.4881069559
C     -0.4658758007    -1.2264881517     0.7219055697
H     -1.0182896726    -2.1562989792     0.7674471904
C      0.8907988624    -1.2181912091     0.7380447331
H      1.4758954854    -2.1216004506     0.7830713068
C     -1.2392984369     0.0152376411     0.6153155224
H     -1.8532113387     0.1094750314     1.5250059620
Br    -2.5061285523    -0.1973832064    -0.8203703033
