15
meta_th45_ph90 | OPTIMIZED | |g_proj|=8.867e-05 | E=-3010.3342435794 Ha
C     -0.9238887284     1.9856260010     0.8112109303
C      0.4595937962     1.9203682283     0.6432979435
C      1.1510878737     0.6991179063     0.6844503884
C      0.4957631115    -0.4733819888     0.7547561036
C     -1.6315474136     0.8263863296     0.8879039322
H     -1.4192809016     2.9411209331     0.8606482125
H      1.0421070475     2.8221731592     0.4985524204
H      1.0361406590    -1.4098568657     0.7773819708
H     -2.7113123735     0.8324616433     0.9786332530
N      2.6291038332     0.7284257996     0.6283547025
O      3.2011270353    -0.1742918194     1.1768233832
O      3.1076389217     1.6571274228     0.0302837842
C     -0.9778184053    -0.4780829596     0.6774128943
H     -1.4237212509    -1.2834746078     1.2582002520
Br    -1.4268264809    -0.7921202266    -1.1964525053
