15
para_th72_ph306 | OPTIMIZED | |g_proj|=1.248e-03 | E=-3010.3265564169 Ha
C     -0.4612418017     1.2639920407     0.6129772190
C      0.8847672930     1.2678194040     0.6548914293
C      1.5164769099     0.0153156945     0.7395144035
H     -1.0061464620     2.1868706248     0.5165483440
H      1.4786626845     2.1688629863     0.6165303817
N      2.9818818402     0.0084522098     0.6764617892
O      3.4346259952    -0.5459491462    -0.2869006368
O      3.5381648918     0.5788071250     1.5735636336
C     -0.4875481514    -1.2106968061     0.8773537190
H     -1.0480998758    -2.1311228364     0.9769748925
C      0.8690629742    -1.2103968922     0.8630198606
H      1.4405974541    -2.1173776364     0.9375944106
C     -1.2501213148     0.0230904307     0.6621070648
H     -2.0892091864     0.1074020363     1.3535603189
Br    -2.0359539349    -0.2575487567    -1.1087571304
