15
meta_th54_ph216 | OPTIMIZED | |g_proj|=3.259e-03 | E=-3010.3390636778 Ha
C     -0.9108986882     2.0359803947     0.7228120920
C      0.4832676376     1.9501300843     0.7869126854
C      1.1538356593     0.7287720470     0.6660807699
C      0.4909152377    -0.4391924469     0.5293751303
C     -1.6234877027     0.8901211222     0.5791816183
H     -1.3966133440     2.9998388612     0.7649588186
H      1.0818712410     2.8431892016     0.9096589612
H      1.0228694350    -1.3797816048     0.4460889552
H     -2.7027903321     0.9131117313     0.5348592985
N      2.6393429776     0.7331836243     0.6382057833
O      3.1709688997    -0.2892373449     0.3008022115
O      3.1548532462     1.7620661437     0.9811208565
C     -0.9746606836    -0.4300474751     0.6042224667
H     -1.1938259999    -0.8253870488     1.6054117038
Br    -1.7874808479    -1.6911482887    -0.5982336409
