15
para_th36_ph126 | OPTIMIZED | |g_proj|=1.561e-03 | E=-3010.3499860592 Ha
C     -0.4735952339     1.2363893043     0.6013180224
C      0.8803261419     1.2508629510     0.6911498036
C      1.5314677140     0.0169283313     0.7268705638
H     -1.0350566288     2.1596799042     0.5969358164
H      1.4591621045     2.1625484644     0.7130229549
N      3.0197316440     0.0444858483     0.8362402693
O      3.5231797758    -0.9258598670     1.3345396252
O      3.5534900255     1.0410376759     0.4289984139
C     -0.4450513713    -1.2539499500     0.5201826959
H     -0.9836291395    -2.1895734676     0.4374289043
C      0.9088470957    -1.2305405143     0.6562653963
H      1.5060734715    -2.1282299004     0.6873285787
C     -1.2307327304    -0.0186296565     0.5796606940
H     -1.7559433767    -0.0793703195     1.5426170657
Br    -2.6923502237     0.0617416734    -0.6871191629
