15
attempt 1 | |g_proj| = 5.215e-04 | E = -3010.3167124675 Ha
C     -0.4869275537     1.2694954600     0.7407123601
C      0.8656471144     1.2654084735     0.7424389628
C      1.4873817536     0.0177142688     0.7451415847
H     -1.0297453227     2.2017020386     0.6984477732
H      1.4523861171     2.1717455505     0.7303176532
N      2.9683766168     0.0045953759     0.6132990274
O      3.4196663164    -0.9766665096     0.0877317689
O      3.5392023269     0.9822793992     1.0132193117
C     -0.5003742448    -1.2261180259     0.8825326945
H     -1.0490884566    -2.1576076465     0.9492039634
C      0.8570288385    -1.2145034002     0.8517652369
H      1.4341410491    -2.1230548706     0.8792007072
C     -1.2590139062     0.0164669603     0.6860152042
H     -2.1810996311     0.0542395085     1.2570344079
Br    -1.7516616943    -0.1381761041    -1.2116209476
