15
attempt 1 | |g_proj| = 3.481e-03 | E = -3010.3346074590 Ha
C     -0.4571098730     1.2573011124     0.5210584012
C      0.8935804146     1.2653586228     0.5994298058
C      1.5285392488     0.0211087710     0.7076032370
H     -1.0027938500     2.1814117295     0.4081825627
H      1.4801031492     2.1731362732     0.5873505029
N      3.0063020144     0.0153472874     0.8140036579
O      3.5638161115    -0.8455839164     0.1886630879
O      3.4748977078     0.8793500836     1.5043069864
C     -0.4670731192    -1.2281295235     0.7213631758
H     -1.0180126051    -2.1599764595     0.7661552140
C      0.8896014533    -1.2169533578     0.7366231806
H      1.4741118053    -2.1201671967     0.7830269975
C     -1.2393158988     0.0141978253     0.6106698250
H     -1.8439783051     0.1117944646     1.5263036891
Br    -2.5167489259    -0.2006752365    -0.8093006105
15
attempt 2 | |g_proj| = 2.569e-03 | E = -3010.3346219758 Ha
C     -0.4568127694     1.2573368156     0.5205649539
C      0.8934514647     1.2641000795     0.6004202709
C      1.5288088757     0.0205036380     0.7084158770
H     -1.0044684749     2.1804562317     0.4108551313
H      1.4795662038     2.1712565830     0.5882706908
N      3.0058305862     0.0164052199     0.8116553079
O      3.5627475036    -0.8484388976     0.1915709225
O      3.4753215613     0.8819699714     1.4994227526
C     -0.4657308088    -1.2269995494     0.7195363919
H     -1.0176856879    -2.1572536624     0.7668716948
C      0.8907608239    -1.2176772559     0.7378380854
H      1.4753123369    -2.1211517516     0.7830253710
C     -1.2384129956     0.0152596403     0.6141941216
H     -1.8479052170     0.1112540645     1.5271641237
Br    -2.5148640708    -0.1995006475    -0.8143659775
15
attempt 3 | |g_proj| = 3.462e-03 | E = -3010.3346364972 Ha
C     -0.4585400719     1.2573652586     0.5252078022
C      0.8923418783     1.2637974590     0.6008467771
C      1.5286732924     0.0200968096     0.7080551480
H     -1.0058362097     2.1806132233     0.4144891740
H      1.4802003802     2.1703599794     0.5896120608
N      3.0064997837     0.0155205126     0.8113905367
O      3.5619078467    -0.8530722477     0.1949667757
O      3.4769740641     0.8878558589     1.4901434651
C     -0.4659031824    -1.2261669311     0.7225928428
H     -1.0181525090    -2.1562150055     0.7670151641
C      0.8911111437    -1.2181334308     0.7374936910
H      1.4761607386    -2.1218232288     0.7831355858
C     -1.2409929809     0.0148738174     0.6129319135
H     -1.8519662852     0.1098385390     1.5253447601
Br    -2.5065585532    -0.1973901344    -0.8177859746
15
attempt 4 | |g_proj| = 1.922e-03 | E = -3010.3346445178 Ha
C     -0.4580979429     1.2576050027     0.5250331587
C      0.8924824728     1.2636539141     0.6015518096
C      1.5284338093     0.0200893917     0.7083177283
H     -1.0060943137     2.1806477287     0.4157027101
H      1.4798523252     2.1700447346     0.5898732479
N      3.0062097849     0.0162361174     0.8100892778
O      3.5617419162    -0.8540468843     0.1963448575
O      3.4775007407     0.8885397992     1.4881069559
C     -0.4658758007    -1.2264881517     0.7219055697
H     -1.0182896726    -2.1562989792     0.7674471904
C      0.8907988624    -1.2181912091     0.7380447331
H      1.4758954854    -2.1216004506     0.7830713068
C     -1.2392984369     0.0152376411     0.6153155224
H     -1.8532113387     0.1094750314     1.5250059620
Br    -2.5061285523    -0.1973832064    -0.8203703033
