15
para_th54_ph288 | OPTIMIZED | |g_proj|=2.205e-03 | E=-3010.3365519326 Ha
C     -0.4541728645     1.2595250764     0.5263408363
C      0.8965465935     1.2623378206     0.5847164110
C      1.5345932071     0.0178661655     0.7047642730
H     -1.0009914743     2.1817933939     0.4148586821
H      1.4867601188     2.1651803068     0.5516783334
N      3.0053573825     0.0082073885     0.7904547816
O      3.5600800481    -0.7203168653     0.0142538212
O      3.4717108880     0.7340477408     1.6257179744
C     -0.4698334687    -1.2142062322     0.7704344248
H     -1.0265895980    -2.1379033903     0.8492147206
C      0.8856192232    -1.2166377076     0.7629691316
H      1.4653720116    -2.1222296988     0.8189762229
C     -1.2428190691     0.0247330102     0.6360915914
H     -1.9173203209     0.1305325633     1.4950500798
Br    -2.4283933545    -0.2254090927    -0.8800815745
