15
meta_th18_ph108 | OPTIMIZED | |g_proj|=1.454e-03 | E=-3010.3514768367 Ha
C     -0.9217825897     2.0123977740     0.7696103619
C      0.4744021702     1.9511495029     0.6972259279
C      1.1573139399     0.7247947773     0.6702061984
C      0.4966357119    -0.4514190016     0.6587967929
C     -1.6304435921     0.8520439704     0.7733599759
H     -1.4162072849     2.9710811858     0.8184413934
H      1.0678865175     2.8589170270     0.6622487658
H      1.0351484959    -1.3902805137     0.6258764079
H     -2.7129232747     0.8568914387     0.8146684502
N      2.6428527959     0.7436575794     0.6357197988
O      3.1890692701    -0.3121597023     0.8071306694
O      3.1526927341     1.8168441498     0.4438419180
C     -0.9751970152    -0.4615639536     0.6581438028
H     -1.3360237729    -1.1452558925     1.4317288708
Br    -1.6152573765    -1.2254993622    -0.9955416467
