15
attempt 1 | |g_proj| = 4.829e-04 | E = -3010.3462381504 Ha
C     -0.9107218546     2.0223823325     0.7530657115
C      0.4864432945     1.9565025607     0.7398206403
C      1.1584949170     0.7255192293     0.6728938828
C      0.4929482631    -0.4460466829     0.6124831808
C     -1.6183571897     0.8649338097     0.7123285661
H     -1.3992323014     2.9826578143     0.7937649372
H      1.0825340178     2.8622252828     0.7686620706
H      1.0258653433    -1.3857973562     0.5634431649
H     -2.6981356430     0.8750075222     0.7256378251
N      2.6415858417     0.7390353991     0.6367606433
O      3.1753242274    -0.3275200503     0.7681494589
O      3.1556010505     1.8186843325     0.5018907775
C     -0.9728857681    -0.4513783655     0.6479532299
H     -1.2945569725    -1.0788370993     1.4834888052
Br    -1.7167404975    -1.3557697555    -0.9088852105
