15
ortho_th45_ph54 | OPTIMIZED | |g_proj|=1.845e-03 | E=-3010.3373073828 Ha
C     -1.7945640722     1.9364354691     0.7452410431
C     -0.3815642683     1.9843890951     0.7287748064
C      0.2814198517     0.8160043832     0.7443450487
C     -2.5194499371     0.7416955503     0.7961503425
H     -2.3384424684     2.8739495026     0.7322862121
H      0.1478698738     2.9229977177     0.7113262314
H     -3.5976904216     0.7678116858     0.8426719114
N      1.7585980785     0.7834167570     0.7857654232
O      2.2341660918    -0.1528802903     1.3773222302
O      2.3228146460     1.6739098852     0.2132142972
C     -1.8390729080    -0.4334487747     0.7341250693
H     -2.3614401809    -1.3773416677     0.7050852929
C     -0.3767326658    -0.4855376815     0.6182311963
H      0.0676810322    -1.2427419143     1.2645046222
Br     0.0429064749    -1.0241830001    -1.2093157720
