15
attempt 1 | |g_proj| = 3.725e-03 | E = -3010.3351297243 Ha
C     -0.4708821084     1.2262928779     0.7603055821
C      0.8768285541     1.2463410031     0.7745650432
C      1.5262322244     0.0071277465     0.7256853531
H     -1.0270454276     2.1448013369     0.8198779797
H      1.4558284630     2.1566212244     0.8010757622
N      2.9954178593     0.0361476466     0.7357240528
O      3.5121404658    -0.6324486722     1.5885281334
O      3.4926525002     0.7491193373    -0.0931677985
C     -0.4546611328    -1.2541293661     0.5798315673
H     -0.9963597313    -2.1853849429     0.4814817548
C      0.8997157756    -1.2366949715     0.6602806150
H      1.4870410156    -2.1382029234     0.6435792700
C     -1.2400675133    -0.0184861411     0.6589003948
H     -1.9548906784    -0.1022885313     1.4798090991
Br    -2.3360310051     0.1487048537    -0.9510371776
15
attempt 2 | |g_proj| = 2.105e-03 | E = -3010.3351477816 Ha
C     -0.4710047496     1.2269973425     0.7599392818
C      0.8777881325     1.2462552852     0.7734978203
C      1.5265727156     0.0067637050     0.7248575019
H     -1.0297981395     2.1462664463     0.8186292109
H      1.4559830976     2.1575704136     0.8012762346
N      2.9971111750     0.0376376628     0.7363245362
O      3.5139223513    -0.6328696744     1.5870359970
O      3.4985405478     0.7490168364    -0.0906164389
C     -0.4559813960    -1.2560776390     0.5802756032
H     -0.9979155267    -2.1871043562     0.4829591126
C      0.8982378459    -1.2374893764     0.6600864212
H      1.4876165665    -2.1370740551     0.6437947715
C     -1.2397173556    -0.0194817905     0.6574365483
H     -1.9562528928    -0.1038164608     1.4766978846
Br    -2.3391831072     0.1509261385    -0.9467548493
15
attempt 3 | |g_proj| = 1.705e-03 | E = -3010.3351493389 Ha
C     -0.4711334417     1.2269957135     0.7597541072
C      0.8775306332     1.2464951434     0.7733045557
C      1.5266409901     0.0070227298     0.7246030974
H     -1.0299072547     2.1458562912     0.8182833865
H      1.4559970251     2.1575555320     0.8012480841
N      2.9978055863     0.0373260214     0.7361788130
O      3.5140481187    -0.6333274738     1.5872904022
O      3.4994143744     0.7495382927    -0.0902115833
C     -0.4559536348    -1.2561509432     0.5802035909
H     -0.9982727491    -2.1875020594     0.4833808547
C      0.8984829196    -1.2372728862     0.6600678484
H      1.4877602730    -2.1370879118     0.6438816311
C     -1.2396883407    -0.0193264508     0.6575168716
H     -1.9564775296    -0.1041310691     1.4762284369
Br    -2.3403277012     0.1515295484    -0.9462904558
