15
attempt 1 | |g_proj| = 1.604e-03 | E = -3010.3506332364 Ha
C     -0.4797599826     1.2350042129     0.5977082383
C      0.8764947554     1.2501571476     0.6782483534
C      1.5311630611     0.0190836723     0.7187265343
H     -1.0484781462     2.1546999087     0.5810740524
H      1.4525669550     2.1629553823     0.7021536931
N      3.0213696632     0.0475738998     0.8487536276
O      3.5285768111    -0.9482563009     1.2900938070
O      3.5554974984     1.0650360796     0.4975910252
C     -0.4420100097    -1.2540291512     0.5263779378
H     -0.9786708077    -2.1896283071     0.4515552754
C      0.9122255707    -1.2315889682     0.6472881329
H      1.5157195361    -2.1267289187     0.6839353500
C     -1.2322819974    -0.0207698217     0.5735822808
H     -1.7490918978    -0.0833848741     1.5447962637
Br    -2.6974017594     0.0673965161    -0.6764449540
