15
meta_th63_ph234 | OPTIMIZED | |g_proj|=4.225e-03 | E=-3010.3299149044 Ha
C     -0.9112766565     2.0331221572     0.7010269717
C      0.4811110866     1.9437502665     0.7790577008
C      1.1546514059     0.7277142873     0.6448057391
C      0.4903848176    -0.4369663696     0.4950941344
C     -1.6283708850     0.8910935840     0.5463062700
H     -1.3995932994     2.9948389052     0.7488206681
H      1.0776556940     2.8321753460     0.9306468764
H      1.0243598413    -1.3751700832     0.4034681009
H     -2.7085216762     0.9172819588     0.5001771916
N      2.6390124195     0.7296159611     0.6467011640
O      3.1800395772    -0.2138449722     0.1377510307
O      3.1444830747     1.6748891474     1.1876671884
C     -0.9744910244    -0.4258372216     0.5892998465
H     -1.1443085295    -0.7241476844     1.6388019551
Br    -1.8169691097    -1.7669162810    -0.4781671277
