15
meta_th63_ph54 | OPTIMIZED | |g_proj|=3.374e-04 | E=-3010.3221619349 Ha
C     -0.9344638248     1.9916068472     0.8428810737
C      0.4483152784     1.9188173850     0.6666470929
C      1.1388767215     0.7051452548     0.7131683878
C      0.4913830637    -0.4719063431     0.7999924161
C     -1.6394993266     0.8337826219     0.8983977627
H     -1.4319307162     2.9474079361     0.8973670414
H      1.0239951302     2.8193628195     0.5100157960
H      1.0340887216    -1.4089328502     0.8204243741
H     -2.7187673717     0.8448569201     0.9747635489
N      2.6123368647     0.7106867143     0.5986716155
O      3.2016463375    -0.1485454668     1.1973905019
O      3.0615372759     1.5624007553    -0.1209175115
C     -0.9781312495    -0.4691568611     0.6907315734
H     -1.4536803737    -1.2883811859     1.2189857865
Br    -1.2475398145    -0.7455456194    -1.2370618212
