15
attempt 1 | |g_proj| = 8.117e-04 | E = -3010.3534692171 Ha
C     -0.4734463150     1.2463252095     0.4786369656
C      0.8816676171     1.2565274180     0.6136494382
C      1.5312334743     0.0245265498     0.7144885600
H     -1.0340386951     2.1686047690     0.3935376471
H      1.4587925498     2.1695654251     0.6422676078
N      3.0211248382     0.0389840374     0.8946519629
O      3.5785035808    -1.0134806491     0.7355912488
O      3.5048539875     1.1009379038     1.1811039326
C     -0.4472826288    -1.2452892310     0.5484196869
H     -0.9878089854    -2.1831458465     0.5170895898
C      0.9092581307    -1.2221210430     0.6634077252
H      1.5072715231    -2.1209391788     0.7079203888
C     -1.2285362909    -0.0073256831     0.5420736697
H     -1.6397800630     0.0343009323     1.5677871908
Br    -2.8158934338    -0.0999501353    -0.5351859454
