15
attempt 1 | |g_proj| = 7.506e-04 | E = -3010.3382894447 Ha
C     -0.5059616026     1.2405716189     0.7523107524
C      0.8524593610     1.2532328942     0.7338079929
C      1.5068993434     0.0219753230     0.7142408957
H     -1.0701917773     2.1654248534     0.7669108162
H      1.4273646098     2.1669413842     0.7381317548
N      3.0088620398     0.0480943801     0.6923943315
O      3.5529866085    -1.0161115768     0.8108865271
O      3.5109672419     1.1289558463     0.5420946968
C     -0.4651451919    -1.2578120738     0.7311766728
H     -0.9995811777    -2.1993296402     0.7229617667
C      0.8923750983    -1.2314527700     0.7377312663
H      1.4947795147    -2.1280913217     0.7607105450
C     -1.2606916233    -0.0198233843     0.6573906011
H     -2.0779548637    -0.0453793981     1.3837998192
Br    -2.1012483455     0.0203243422    -1.0791088387
