15
para_th18_ph54 | OPTIMIZED | |g_proj|=1.158e-03 | E=-3010.3489465327 Ha
C     -0.4858862519     1.2375870215     0.6170138713
C      0.8718991684     1.2516348499     0.6831640154
C      1.5273809906     0.0210871203     0.7125153682
H     -1.0540227137     2.1593323255     0.5960906021
H      1.4468201299     2.1653278241     0.7103847797
N      3.0236227844     0.0513799088     0.8227895826
O      3.5521821754    -0.9933937115     1.0915318064
O      3.5408933042     1.1177083785     0.6251183894
C     -0.4461412345    -1.2572094897     0.5800819911
H     -0.9842324578    -2.1954187054     0.5343842420
C      0.9108051175    -1.2313629158     0.6612696261
H      1.5151686100    -2.1266355090     0.6884751698
C     -1.2382858754    -0.0211014836     0.5894358738
H     -1.8191366205    -0.0579881506     1.5245216554
Br    -2.5951478845     0.0265730144    -0.7713373643
