15
meta_th9_ph90 | OPTIMIZED | |g_proj|=1.624e-03 | E=-3010.3556623514 Ha
C     -0.9205527324     2.0227862835     0.7641113223
C      0.4778507236     1.9588119977     0.7248902711
C      1.1582281403     0.7333020936     0.6605774241
C      0.4955393027    -0.4405073514     0.5919432230
C     -1.6324612370     0.8654152349     0.7094006351
H     -1.4144954044     2.9818634579     0.8248291147
H      1.0748280726     2.8642698171     0.7443761886
H      1.0349613081    -1.3778965974     0.5219928898
H     -2.7160930059     0.8735955489     0.7252891636
N      2.6460215303     0.7435757652     0.6475053149
O      3.1838879523    -0.3299698291     0.6792592269
O      3.1655722323     1.8282076026     0.6128121191
C     -0.9740008255    -0.4475779524     0.6215883771
H     -1.2728570466    -1.0300568953     1.5011044783
Br    -1.6982622872    -1.4442202256    -0.8582220876
