15
attempt 1 | |g_proj| = 2.364e-03 | E = -3010.3434750177 Ha
C     -0.9291182177     2.0109797558     0.7803322212
C      0.4648802223     1.9441395418     0.6734004058
C      1.1495831298     0.7203383883     0.6738969347
C      0.4929257803    -0.4567211463     0.7065368439
C     -1.6363038939     0.8514735591     0.8168009799
H     -1.4221008721     2.9718897511     0.8203710706
H      1.0570211676     2.8496703361     0.6014387060
H      1.0333962809    -1.3954542379     0.6814821987
H     -2.7180563540     0.8587979109     0.8696114409
N      2.6341169922     0.7331542478     0.6274217620
O      3.1811540337    -0.3192924066     0.8178365356
O      3.1414693118     1.7971729593     0.3896619570
C     -0.9802143617    -0.4635778365     0.6768572120
H     -1.3789436974    -1.1786515140     1.4008505967
Br    -1.4816427985    -1.1223203523    -1.0650411994
15
attempt 2 | |g_proj| = 2.265e-03 | E = -3010.3434764579 Ha
C     -0.9292064126     2.0107407482     0.7802259511
C      0.4647660322     1.9441139128     0.6730013289
C      1.1494064556     0.7200597931     0.6740566342
C      0.4929172029    -0.4565078099     0.7070903902
C     -1.6365112080     0.8509127044     0.8169263075
H     -1.4222327204     2.9712330031     0.8209293124
H      1.0566707159     2.8492903092     0.6005996819
H      1.0338246757    -1.3953797991     0.6823452556
H     -2.7184601221     0.8588899668     0.8704335618
N      2.6348654500     0.7329656440     0.6276327659
O      3.1813883507    -0.3193861506     0.8195734478
O      3.1413662933     1.7970287589     0.3875665469
C     -0.9806403548    -0.4635274361     0.6769285472
H     -1.3788962635    -1.1789498090     1.4004823873
Br    -1.4810913705    -1.1198848747    -1.0663344487
15
attempt 3 | |g_proj| = 2.090e-03 | E = -3010.3434770184 Ha
C     -0.9292304578     2.0105216836     0.7802115932
C      0.4646693235     1.9439574218     0.6729106088
C      1.1495721691     0.7201859830     0.6741015895
C      0.4928377468    -0.4566770123     0.7072082318
C     -1.6366182240     0.8510374849     0.8170122903
H     -1.4223091900     2.9711518198     0.8210590584
H      1.0566404490     2.8492965580     0.6003760763
H      1.0338650076    -1.3952891382     0.6825768962
H     -2.7184930088     0.8588887491     0.8706325451
N      2.6347645721     0.7329783008     0.6276268808
O      3.1815217382    -0.3193163085     0.8200154635
O      3.1413849464     1.7968299653     0.3870812993
C     -0.9805488932    -0.4636100529     0.6768862782
H     -1.3789447884    -1.1790818302     1.4003932648
Br    -1.4809446649    -1.1192746586    -1.0666344018
15
attempt 4 | |g_proj| = 2.314e-03 | E = -3010.3434774166 Ha
C     -0.9295584258     2.0102435712     0.7801902242
C      0.4647220625     1.9436071886     0.6724237280
C      1.1496199568     0.7197855891     0.6743489006
C      0.4930182740    -0.4564212651     0.7077571300
C     -1.6369560087     0.8507678242     0.8174314143
H     -1.4225266969     2.9705234689     0.8216715130
H      1.0562729747     2.8490829163     0.5992800790
H      1.0341751142    -1.3951497731     0.6837190093
H     -2.7187714113     0.8589006854     0.8716227554
N      2.6348272635     0.7326651161     0.6276802542
O      3.1818259541    -0.3187187234     0.8221694704
O      3.1414678624     1.7960709128     0.3846185236
C     -0.9806047216    -0.4637474975     0.6768400798
H     -1.3791579315    -1.1797206243     1.3998417267
Br    -1.4801875394    -1.1162904189    -1.0681371296
15
attempt 5 | |g_proj| = 2.029e-03 | E = -3010.3434779879 Ha
C     -0.9293910361     2.0100644710     0.7801926581
C      0.4645032661     1.9435648772     0.6723533823
C      1.1497563849     0.7200229099     0.6743688585
C      0.4928865846    -0.4567308457     0.7078655415
C     -1.6369515946     0.8507442611     0.8175293457
H     -1.4226125148     2.9705180242     0.8217767413
H      1.0562302134     2.8490534558     0.5990596141
H      1.0342026855    -1.3950840463     0.6839426023
H     -2.7188376479     0.8588787754     0.8718143773
N      2.6348336521     0.7328597782     0.6276361154
O      3.1819600887    -0.3188644190     0.8226389011
O      3.1414080917     1.7959107649     0.3841481230
C     -0.9805975171    -0.4637521426     0.6768657874
H     -1.3791987815    -1.1798529877     1.3996776928
Br    -1.4800251468    -1.1157339014    -1.0684120574
15
attempt 6 | |g_proj| = 2.136e-03 | E = -3010.3434781624 Ha
C     -0.9294981232     2.0099934326     0.7802338312
C      0.4645359837     1.9435460134     0.6722009213
C      1.1496611964     0.7198767587     0.6744204741
C      0.4929393638    -0.4565998593     0.7080465791
C     -1.6369701917     0.8506478877     0.8177088859
H     -1.4226711089     2.9703567525     0.8219488946
H      1.0560873350     2.8489630134     0.5986774358
H      1.0343047429    -1.3951243593     0.6843281748
H     -2.7189006928     0.8588445864     0.8721474681
N      2.6349542165     0.7325339804     0.6276954474
O      3.1819384735    -0.3186438826     0.8233738726
O      3.1414554981     1.7958665852     0.3832682324
C     -0.9806388692    -0.4637947553     0.6769125215
H     -1.3792931557    -1.1801022832     1.3993882704
Br    -1.4797379392    -1.1147648911    -1.0688933213
15
attempt 1 | |g_proj| = 2.364e-03 | E = -3010.3434750572 Ha
C     -0.9291181402     2.0109800601     0.7803323638
C      0.4648802585     1.9441397574     0.6734005457
C      1.1495830238     0.7203384400     0.6738967828
C      0.4929257445    -0.4567211599     0.7065361815
C     -1.6363036375     0.8514736878     0.8168010010
H     -1.4221007825     2.9718900559     0.8203707655
H      1.0570212553     2.8496704367     0.6014390779
H      1.0333961726    -1.3954545113     0.6814818972
H     -2.7180560555     0.8587977888     0.8696110248
N      2.6341171649     0.7331544570     0.6274222374
O      3.1811537035    -0.3192927713     0.8178356353
O      3.1414692085     1.7971733988     0.3896626234
C     -0.9802144578    -0.4635777111     0.6768573506
H     -1.3789438033    -1.1786514828     1.4008506429
Br    -1.4816429314    -1.1223214898    -1.0650404641
