15
attempt 1 | |g_proj| = 3.855e-05 | E = -3010.3564233424 Ha
C     -0.4808218806     1.2402858306     0.5229224908
C      0.8757132182     1.2533801853     0.6464031260
C      1.5301943903     0.0237699225     0.7172815444
H     -1.0454743652     2.1634264578     0.4721424178
H      1.4496920678     2.1685355034     0.6816047025
N      3.0234265332     0.0496401586     0.8885975186
O      3.5515288036    -1.0157632957     1.0616648494
O      3.5389996806     1.1337916044     0.8366285551
C     -0.4420388265    -1.2542711860     0.5085724507
H     -0.9781153794    -2.1935420808     0.4470063581
C      0.9138177859    -1.2260648597     0.6415937959
H      1.5149617091    -2.1234937905     0.6831000153
C     -1.2282956806    -0.0186937858     0.5404042829
H     -1.6444953944    -0.0401533614     1.5629647825
Br    -2.8131734083    -0.0133268244    -0.5454472677
