15
ortho_th27_ph342 | OPTIMIZED | |g_proj|=9.228e-04 | E=-3010.3505368831 Ha
C     -1.7923665513     1.9589736826     0.7612779104
C     -0.3745938115     1.9936464819     0.7121505063
C      0.2834689057     0.8253759065     0.6397412315
C     -2.5223065558     0.7719997078     0.7487805718
H     -2.3221931650     2.9029682529     0.8239335344
H      0.1664099374     2.9294799241     0.7473741405
H     -3.6012616843     0.7941760446     0.7911741809
N      1.7716343932     0.8300528180     0.7187745092
O      2.2907521399    -0.2537488774     0.7772843797
O      2.3034940914     1.9066122874     0.7155156056
C     -1.8501525108    -0.4147870163     0.6651758411
H     -2.3822196650    -1.3583091385     0.6456060109
C     -0.3863556238    -0.4817490581     0.6140136140
H     -0.0091453016    -1.1177262126     1.4113172343
Br     0.0713344563    -1.5024880020    -0.9823912329
