15
para_th45_ph234 | OPTIMIZED | |g_proj|=1.286e-03 | E=-3010.3439116265 Ha
C     -0.4629240935     1.2477552654     0.4288083260
C      0.8906004961     1.2494190499     0.5715600024
C      1.5316433322     0.0187685623     0.7121046479
H     -1.0141240288     2.1723044764     0.3167791910
H      1.4723657362     2.1568568548     0.5716131261
N      3.0101907113     0.0263571698     0.8989122270
O      3.5957169023    -0.9402984981     0.4927065097
O      3.4527365828     0.9919263120     1.4599132970
C     -0.4491579939    -1.2356807364     0.5786044729
H     -0.9953674234    -2.1666742466     0.5689376109
C      0.9025678500    -1.2266020188     0.6901645232
H      1.4951473072    -2.1280821583     0.7359205263
C     -1.2271149342     0.0052609746     0.5608832082
H     -1.6145777242     0.0923163773     1.5903560993
Br    -2.8217834070    -0.1161069054    -0.5118240726
