15
ortho_th45_ph18 | OPTIMIZED | |g_proj|=1.514e-03 | E=-3010.3429086754 Ha
C     -1.7968136115     1.9514118661     0.7632790277
C     -0.3794558805     1.9944794301     0.7141428322
C      0.2732004239     0.8237650131     0.6855557306
C     -2.5170076153     0.7564465312     0.7846571830
H     -2.3350554448     2.8922219458     0.8028767050
H      0.1546293271     2.9325523617     0.7154451097
H     -3.5931107908     0.7798298412     0.8360230779
N      1.7539193385     0.8056678251     0.7481354473
O      2.2396860117    -0.2316239238     1.1206121268
O      2.3081473766     1.8158391898     0.4141435255
C     -1.8429794962    -0.4256363541     0.6917913749
H     -2.3686503649    -1.3703694746     0.6614729718
C     -0.3832252740    -0.4829732991     0.6155943097
H      0.0214638379    -1.1868894117     1.3414353516
Br     0.1117513007    -1.2702448373    -1.1054368328
