15
meta_th90_ph162 | OPTIMIZED | |g_proj|=6.767e-04 | E=-3010.3316464756 Ha
C     -0.9103074106     1.9716135533     1.0621752521
C      0.4892965295     1.9194596589     0.9831808996
C      1.1472939534     0.7228010655     0.6731807627
C      0.4728255368    -0.4229097865     0.4516264394
C     -1.6214444883     0.8439307221     0.8210373623
H     -1.3882728956     2.9049877141     1.3069812149
H      1.0852611691     2.8088656899     1.1592443512
H      0.9976787492    -1.3364356221     0.2176783498
H     -2.6976849701     0.8521644037     0.8644773301
N      2.6253107429     0.7137140857     0.5906094173
O      3.1862753404     1.7261321846     0.9154691124
O      3.1019093848    -0.3127332232     0.1958136824
C     -0.9885024831    -0.4337485668     0.4774914967
H     -1.3705995203    -1.2475710269     1.0990391665
Br    -1.5208729108    -0.9086718827    -1.3465471584
