15
attempt 1 | |g_proj| = 8.456e-03 | E = -3010.3189630877 Ha
C     -0.9122211020     1.9848457383     0.9453820412
C      0.4790150281     1.9226014599     0.8718514651
C      1.1618234498     0.7233669341     0.6591278646
C      0.4895271922    -0.4334243850     0.5236993314
C     -1.6371799264     0.8456295982     0.8415562412
H     -1.4089346897     2.9290845233     1.0799197836
H      1.0437177142     2.8378762165     0.9534443051
H      0.9977668802    -1.3646758719     0.3185292403
H     -2.7175517096     0.8699123647     0.9236329873
N      2.6335616781     0.7080604410     0.5975341438
O      3.1865897708     1.0002821981     1.6270984071
O      3.1242275047     0.3761795289    -0.4508304594
C     -0.9781796554    -0.4415347568     0.5875337476
H     -1.3761303029    -1.2189728404     1.2306707518
Br    -1.4778651144    -0.9376322166    -1.2376922077
15
attempt 2 | |g_proj| = 6.245e-03 | E = -3010.3192919674 Ha
C     -0.9126407802     1.9970299689     0.9361531181
C      0.4798771928     1.9208333275     0.8763066751
C      1.1544072166     0.7175747216     0.6572002230
C      0.4849575384    -0.4355162226     0.5071802887
C     -1.6363613352     0.8527357174     0.8196883291
H     -1.4002904733     2.9456747272     1.0993710770
H      1.0785818330     2.8121347105     0.9869901999
H      1.0164866108    -1.3591746727     0.3335258787
H     -2.7173530856     0.8625447352     0.8991115800
N      2.6282893577     0.7123780184     0.6008324669
O      3.1788621506     1.0241457013     1.6253220776
O      3.1223550125     0.3845306496    -0.4464902649
C     -0.9830039364    -0.4440191989     0.5670863507
H     -1.3458074992    -1.2168602639     1.2410728949
Br    -1.5401930834    -0.9724129827    -1.2318932473
15
attempt 3 | |g_proj| = 4.298e-03 | E = -3010.3193703262 Ha
C     -0.9072068563     1.9915394798     0.9420529010
C      0.4832029740     1.9186016374     0.8821118989
C      1.1582352155     0.7176572177     0.6514251418
C      0.4879159779    -0.4359011306     0.5020574898
C     -1.6331125895     0.8526063522     0.8178635557
H     -1.3995101914     2.9361021474     1.0963527989
H      1.0687696130     2.8168259203     0.9983518333
H      1.0113008001    -1.3650372349     0.3230441370
H     -2.7133443550     0.8691694912     0.8895988939
N      2.6286204546     0.7158578108     0.5996037012
O      3.1756805209     1.0287505218     1.6235050535
O      3.1274354767     0.3839187670    -0.4417542236
C     -0.9819990573    -0.4410029515     0.5614511953
H     -1.3484675673    -1.2033229769     1.2431954804
Br    -1.5493536956    -0.9841661101    -1.2174022051
15
attempt 4 | |g_proj| = 4.019e-03 | E = -3010.3194044152 Ha
C     -0.9081145897     1.9932870634     0.9416622161
C      0.4830759491     1.9186220228     0.8841250746
C      1.1581975932     0.7166550675     0.6522408082
C      0.4870613309    -0.4357024281     0.4984162384
C     -1.6331466787     0.8531551552     0.8143086880
H     -1.3995679773     2.9392047586     1.0991088559
H      1.0704379840     2.8159746794     1.0039166072
H      1.0105591334    -1.3633075902     0.3185154540
H     -2.7138425800     0.8701093290     0.8851138033
N      2.6317674297     0.7145265454     0.5995225654
O      3.1751624102     1.0329866414     1.6251337628
O      3.1312275714     0.3832126432    -0.4432082868
C     -0.9814029808    -0.4419137341     0.5629118426
H     -1.3467262695    -1.2021838497     1.2489062914
Br    -1.5565216042    -0.9930273576    -1.2192162645
15
attempt 5 | |g_proj| = 2.771e-03 | E = -3010.3194107232 Ha
C     -0.9078698223     1.9932566351     0.9416305856
C      0.4832902409     1.9184686485     0.8845344055
C      1.1585761491     0.7168337683     0.6518810313
C      0.4871923779    -0.4354913281     0.4981444435
C     -1.6332568197     0.8534584620     0.8140058307
H     -1.3993628542     2.9390083819     1.0993163428
H      1.0705102429     2.8155954798     1.0048877784
H      1.0106334936    -1.3634966518     0.3175448797
H     -2.7137813453     0.8702261049     0.8842821906
N      2.6312766458     0.7150377865     0.5995299714
O      3.1751921984     1.0330922229     1.6241766214
O      3.1315414360     0.3833156813    -0.4418574481
C     -0.9823021210    -0.4420034861     0.5615124926
H     -1.3462788637    -1.2016125399     1.2494606138
Br    -1.5571942355    -0.9940902145    -1.2175920781
15
attempt 6 | |g_proj| = 2.771e-03 | E = -3010.3194106886 Ha
C     -0.9078698227     1.9932566360     0.9416305860
C      0.4832902411     1.9184686494     0.8845344059
C      1.1585761496     0.7168337686     0.6518810316
C      0.4871923781    -0.4354913283     0.4981444437
C     -1.6332568205     0.8534584624     0.8140058311
H     -1.3993628549     2.9390083833     1.0993163433
H      1.0705102434     2.8155954811     1.0048877789
H      1.0106334941    -1.3634966524     0.3175448799
H     -2.7137813466     0.8702261053     0.8842821910
N      2.6312766470     0.7150377868     0.5995299717
O      3.1751921999     1.0330922234     1.6241766222
O      3.1315414375     0.3833156815    -0.4418574483
C     -0.9823021215    -0.4420034863     0.5615124929
H     -1.3462788643    -1.2016125405     1.2494606144
Br    -1.5571942362    -0.9940902150    -1.2175920787
15
attempt 1 | |g_proj| = 8.670e-03 | E = -3010.3188958887 Ha
C     -0.9117037268     1.9853845729     0.9457974118
C      0.4801787332     1.9228947870     0.8750784777
C      1.1637407674     0.7249809926     0.6549565446
C      0.4899816031    -0.4310600434     0.5176149178
C     -1.6382412878     0.8473923673     0.8392806383
H     -1.4108654489     2.9281909439     1.0834055708
H      1.0394786179     2.8405658001     0.9646715728
H      0.9960768429    -1.3625020181     0.3082357345
H     -2.7193999969     0.8707214209     0.9242394906
N      2.6358462640     0.7074761858     0.5964433959
O      3.1857625906     1.0121996606     1.6239959139
O      3.1306137076     0.3580047424    -0.4434871421
C     -0.9781783120    -0.4397576029     0.5843091042
H     -1.3728155252    -1.2148438838     1.2328738572
Br    -1.4823081115    -0.9480489930    -1.2359578449
15
attempt 2 | |g_proj| = 5.517e-03 | E = -3010.3193102613 Ha
C     -0.9110488710     1.9970875597     0.9375920796
C      0.4811667405     1.9205274515     0.8798035768
C      1.1549926113     0.7189443909     0.6549886932
C      0.4864235436    -0.4336715777     0.5004696521
C     -1.6356725404     0.8537000283     0.8169880839
H     -1.3996620253     2.9446457866     1.1028240716
H      1.0800922776     2.8102456647     0.9960392965
H      1.0174783686    -1.3566586823     0.3228250991
H     -2.7174409844     0.8631968166     0.8956805823
N      2.6263819766     0.7142972229     0.6017398654
O      3.1752040395     1.0373900395     1.6231275471
O      3.1218663945     0.3696927572    -0.4387937311
C     -0.9816945337    -0.4430060394     0.5628569128
H     -1.3409471124    -1.2121391389     1.2435438036
Br    -1.5489731663    -0.9826533427    -1.2282278854
15
attempt 3 | |g_proj| = 4.751e-03 | E = -3010.3193740225 Ha
C     -0.9086451055     1.9927187352     0.9423428091
C      0.4823167388     1.9197307832     0.8843746962
C      1.1566627730     0.7181752814     0.6512522044
C      0.4866603286    -0.4347027878     0.4963356015
C     -1.6331390184     0.8531246075     0.8155836290
H     -1.3991787972     2.9377596401     1.1003156708
H      1.0719928216     2.8154694902     1.0049213383
H      1.0136384281    -1.3618197219     0.3147179251
H     -2.7123860446     0.8685544427     0.8883286192
N      2.6285312270     0.7139743123     0.6010927212
O      3.1739868748     1.0414399100     1.6210039799
O      3.1288341600     0.3706567155    -0.4358813155
C     -0.9831000175    -0.4408023204     0.5575971038
H     -1.3429184054    -1.2016538322     1.2448855207
Br    -1.5550892433    -0.9910263143    -1.2154128519
15
attempt 4 | |g_proj| = 4.033e-03 | E = -3010.3194083031 Ha
C     -0.9073239155     1.9938690681     0.9425157202
C      0.4837403757     1.9184845052     0.8860448710
C      1.1581336023     0.7174956721     0.6512436986
C      0.4876567035    -0.4343239468     0.4937159138
C     -1.6329227131     0.8539533833     0.8130964880
H     -1.3998024728     2.9391247011     1.1019032092
H      1.0714149102     2.8146209101     1.0091802752
H      1.0116417577    -1.3606285995     0.3110859560
H     -2.7144236239     0.8697412734     0.8848544852
N      2.6302997666     0.7154618898     0.6003224886
O      3.1733161333     1.0439553593     1.6228927602
O      3.1311296699     0.3696108764    -0.4366626951
C     -0.9804720761    -0.4411911602     0.5598969414
H     -1.3427867104    -1.2001887749     1.2491981324
Br    -1.5614346861    -0.9983862113    -1.2178305883
15
attempt 5 | |g_proj| = 2.786e-03 | E = -3010.3194151544 Ha
C     -0.9077662917     1.9935421599     0.9425252854
C      0.4834494780     1.9186482782     0.8868170933
C      1.1584064738     0.7178136742     0.6507557662
C      0.4874424190    -0.4340809572     0.4930994222
C     -1.6331378863     0.8541173817     0.8124617469
H     -1.3992126924     2.9388282586     1.1022389876
H      1.0717534857     2.8144422248     1.0109137790
H      1.0118310403    -1.3612125787     0.3093824723
H     -2.7135801353     0.8701205567     0.8833530269
N      2.6304726306     0.7152931165     0.6006145671
O      3.1733302243     1.0446626286     1.6219388134
O      3.1320876951     0.3699314364    -0.4355289269
C     -0.9822194778    -0.4411606693     0.5579242061
H     -1.3420637740    -1.1991088651     1.2501791221
Br    -1.5626264667    -1.0002376946    -1.2152177010
15
attempt 6 | |g_proj| = 2.802e-03 | E = -3010.3194160610 Ha
C     -0.9076613543     1.9935140604     0.9425900386
C      0.4835409132     1.9185373217     0.8871294770
C      1.1581674604     0.7177614367     0.6506115359
C      0.4872835548    -0.4341678739     0.4925737771
C     -1.6330974707     0.8541652909     0.8120108628
H     -1.3990681929     2.9388023960     1.1024559086
H      1.0718216223     2.8143198218     1.0118316063
H      1.0116787928    -1.3610797688     0.3085974298
H     -2.7136756399     0.8703625771     0.8826193039
N      2.6303809905     0.7153609366     0.6004902871
O      3.1735374598     1.0452409414     1.6222908221
O      3.1326266775     0.3698254759    -0.4355155921
C     -0.9821275702    -0.4411410650     0.5576585012
H     -1.3417247934    -1.1984506298     1.2506472861
Br    -1.5635157262    -1.0014519655    -1.2145335794
15
attempt 1 | |g_proj| = 8.219e-03 | E = -3010.3189308246 Ha
C     -0.9121390444     1.9873928603     0.9439092064
C      0.4799632127     1.9201203499     0.8689437453
C      1.1630856711     0.7197317513     0.6634650858
C      0.4904446776    -0.4377088878     0.5361616397
C     -1.6398701903     0.8479641217     0.8446938362
H     -1.4133679506     2.9312025810     1.0758175953
H      1.0466442629     2.8348009105     0.9391716277
H      1.0019094063    -1.3671909240     0.3297253722
H     -2.7230786033     0.8682880685     0.9223565874
N      2.6345082543     0.7099572454     0.5958332245
O      3.1915033790     0.9771295206     1.6297175730
O      3.1221547889     0.4040535583    -0.4610980462
C     -0.9792022645    -0.4416673480     0.5947270727
H     -1.3841892666    -1.2249438545     1.2264480197
Br    -1.4701996155    -0.9275310210    -1.2384148965
15
attempt 2 | |g_proj| = 5.781e-03 | E = -3010.3192861576 Ha
C     -0.9092970598     1.9956914535     0.9350179377
C      0.4818428382     1.9205015138     0.8722980355
C      1.1541008050     0.7160980221     0.6590928742
C      0.4834053667    -0.4369640737     0.5138488891
C     -1.6339521046     0.8515071836     0.8215265808
H     -1.3976351052     2.9444046172     1.0943281580
H      1.0743228337     2.8159869029     0.9774247724
H      1.0125529351    -1.3624458172     0.3503850408
H     -2.7146559990     0.8614809754     0.9010501414
N      2.6252395120     0.7138901944     0.6002116251
O      3.1813787881     1.0022457597     1.6280008594
O      3.1148049194     0.4089344263    -0.4552576913
C     -0.9841399179    -0.4467871826     0.5689954408
H     -1.3486610821    -1.2206874215     1.2421854498
Br    -1.5311400108    -0.9622576172    -1.2376504660
