15
meta_th90_ph72 | OPTIMIZED | |g_proj|=5.781e-03 | E=-3010.3192861576 Ha
C     -0.9092970598     1.9956914535     0.9350179377
C      0.4818428382     1.9205015138     0.8722980355
C      1.1541008050     0.7160980221     0.6590928742
C      0.4834053667    -0.4369640737     0.5138488891
C     -1.6339521046     0.8515071836     0.8215265808
H     -1.3976351052     2.9444046172     1.0943281580
H      1.0743228337     2.8159869029     0.9774247724
H      1.0125529351    -1.3624458172     0.3503850408
H     -2.7146559990     0.8614809754     0.9010501414
N      2.6252395120     0.7138901944     0.6002116251
O      3.1813787881     1.0022457597     1.6280008594
O      3.1148049194     0.4089344263    -0.4552576913
C     -0.9841399179    -0.4467871826     0.5689954408
H     -1.3486610821    -1.2206874215     1.2421854498
Br    -1.5311400108    -0.9622576172    -1.2376504660
