15
attempt 1 | |g_proj| = 1.690e-03 | E = -3010.3463123313 Ha
C     -1.7909608830     1.9439132469     0.7198881339
C     -0.3736785453     1.9879461288     0.7195765516
C      0.2908688730     0.8212869816     0.6989636486
C     -2.5171996590     0.7533864412     0.7410904151
H     -2.3273166112     2.8862875446     0.7239232389
H      0.1616196246     2.9269546590     0.7518801026
H     -3.5969383434     0.7749650668     0.7637208456
N      1.7786737639     0.8266087621     0.7478028364
O      2.2970287207    -0.2480439720     0.9152698195
O      2.3111165453     1.8981687566     0.6463571966
C     -1.8383889422    -0.4300768004     0.7367528608
H     -2.3655856415    -1.3767220716     0.7511947586
C     -0.3722747539    -0.4888484821     0.6291391380
H      0.0738802201    -1.1829098858     1.3429139050
Br    -0.0843452918    -1.3084395981    -1.0987454365
