15
attempt 1 | |g_proj| = 9.772e-04 | E = -3010.3381163683 Ha
C     -0.9132935156     2.0182746085     0.7626351293
C      0.4837145443     1.9562776457     0.7200154021
C      1.1538351351     0.7242092711     0.6729175512
C      0.4892345530    -0.4488469810     0.6580565148
C     -1.6164595538     0.8589656794     0.7559456848
H     -1.4001622618     2.9786744604     0.7981674012
H      1.0754386574     2.8653626032     0.7138290582
H      1.0189891037    -1.3900053191     0.6287800393
H     -2.6937262838     0.8681803639     0.7879198003
N      2.6337196819     0.7317935787     0.6211553951
O      3.1579101519    -0.3290116645     0.8169588467
O      3.1515807883     1.7963814905     0.4061884071
C     -0.9746718116    -0.4571407966     0.6809703386
H     -1.3427305776    -1.1403202669     1.4485222311
Br    -1.6152118876    -1.2311957178    -1.0006041349
