15
attempt 1 | |g_proj| = 1.270e-03 | E = -3010.3334519953 Ha
C     -0.9164149497     2.0281661253     0.7525370295
C      0.4820923804     1.9552036867     0.7405211853
C      1.1501159607     0.7262369253     0.6822258575
C      0.4875487327    -0.4483080648     0.6692512788
C     -1.6187652196     0.8720291075     0.7200232292
H     -1.3991490235     2.9930392171     0.7716818860
H      1.0758170863     2.8607124146     0.7614970229
H      1.0185270619    -1.3902643967     0.6398252769
H     -2.6956503065     0.8901430014     0.7192519736
N      2.6305733201     0.7282145597     0.6017690830
O      3.1483507804    -0.3531573956     0.5576331779
O      3.1500634463     1.8117784675     0.5921229726
C     -0.9770681959    -0.4492581152     0.6924260771
H     -1.3379369683    -1.0825658503     1.5049040361
Br    -1.5899373780    -1.3403707131    -0.9342124074
