15
meta_th18_ph252 | OPTIMIZED | |g_proj|=6.581e-04 | E=-3010.3622198032 Ha
C     -0.9155978677     2.0308480419     0.7326045653
C      0.4811909518     1.9594425960     0.7898150811
C      1.1569959302     0.7417766504     0.6427169291
C      0.4924616078    -0.4236209574     0.4634041077
C     -1.6319461396     0.8833466998     0.5648152493
H     -1.4090939221     2.9894428533     0.8105119464
H      1.0759892699     2.8534916093     0.9418423900
H      1.0311159056    -1.3567375305     0.3448893400
H     -2.7146771814     0.8982099283     0.5279919502
N      2.6453205422     0.7389397456     0.6639215582
O      3.1751794836    -0.3074421214     0.4028232812
O      3.1710683398     1.7821046691     0.9512632068
C     -0.9702604353    -0.4272670780     0.5495431029
H     -1.1372274052    -0.7751533620     1.5807002715
Br    -1.8423523403    -1.7857827278    -0.4953852564
