15
attempt 1 | |g_proj| = 9.122e-04 | E = -3010.3474759947 Ha
C     -0.4853138698     1.2330665952     0.6450390280
C      0.8720006334     1.2476819659     0.6938316965
C      1.5292498218     0.0177945919     0.7124143699
H     -1.0540383694     2.1542287186     0.6383364478
H      1.4465286770     2.1606833362     0.7180509987
N      3.0201999396     0.0499810008     0.8120168875
O      3.5370825321    -0.9420029275     1.2505351643
O      3.5449036455     1.0654212439     0.4414234586
C     -0.4442158122    -1.2581538567     0.5738985535
H     -0.9824047422    -2.1946465268     0.5205928908
C      0.9115913920    -1.2352872011     0.6551994447
H      1.5153800382    -2.1307198542     0.6807550293
C     -1.2387046602    -0.0235685045     0.6015382236
H     -1.8441110106    -0.0803519468     1.5183217143
Br    -2.5622289687     0.0833938424    -0.7965142941
