15
para_th81_ph54 | OPTIMIZED | |g_proj|=1.930e-03 | E=-3010.3257021648 Ha
C     -0.5006055408     1.2280072424     0.8902614957
C      0.8559226896     1.2383609413     0.9004814744
C      1.5161168203     0.0195337281     0.7574029235
H     -1.0669060202     2.1466118531     0.9821283680
H      1.4145195465     2.1531869188     0.9833895377
N      2.9761121508     0.0342283265     0.6377881963
O      3.5862796659    -0.3483748872     1.5960119546
O      3.3653001786     0.3939059354    -0.4395774922
C     -0.4513129383    -1.2491975993     0.6440456758
H     -0.9826329985    -2.1811731057     0.5563655480
C      0.8945308402    -1.2385461922     0.6800975367
H      1.4958350031    -2.1339805677     0.6309939764
C     -1.2512017268    -0.0145691438     0.6693982042
H     -2.1183458526    -0.0899036717     1.3242780995
Br    -1.9676925749     0.1894306997    -1.1476258897
