15
attempt 1 | |g_proj| = 2.674e-03 | E = -3010.3260236422 Ha
C     -0.4614179321     1.2311680350     0.9096425295
C      0.8848715120     1.2333385208     0.9276193743
C      1.5197840402    -0.0004386879     0.7136591820
H     -1.0081124715     2.1481915963     1.0450339029
H      1.4727981861     2.1237867851     1.0923494729
N      2.9860680898     0.0059950424     0.6867234033
O      3.5119871601     0.3478833747     1.7098986078
O      3.4700077880    -0.3127951155    -0.3639721976
C     -0.4757547253    -1.2337202820     0.5493868102
H     -1.0293242462    -2.1548006226     0.4207591087
C      0.8797412133    -1.2210352120     0.5196416377
H      1.4535768548    -2.1153794436     0.3565602117
C     -1.2480371352     0.0074974913     0.6852164237
H     -2.0296423425    -0.0957733991     1.4428558546
Br    -2.1606266823     0.1836023963    -1.0299346307
15
attempt 2 | |g_proj| = 4.272e-03 | E = -3010.3260861248 Ha
C     -0.4694570195     1.2222965692     0.9444486733
C      0.8799598058     1.2303100522     0.9593258068
C      1.5212610463     0.0024735118     0.7255220786
H     -1.0192337962     2.1358185265     1.0880385263
H      1.4678115112     2.1223108935     1.1242750569
N      2.9900430292     0.0080418296     0.6583490667
O      3.5482723645     0.4145954198     1.6399188172
O      3.4441946441    -0.3784748220    -0.3836857543
C     -0.4802962579    -1.2332493761     0.5729184314
H     -1.0328606918    -2.1541328036     0.4443066494
C      0.8769283656    -1.2177863226     0.5367775620
H      1.4515996642    -2.1096651874     0.3569392307
C     -1.2581316176     0.0051767196     0.6937673866
H     -2.0970342256    -0.0911680787     1.3874801634
Br    -2.0571375095     0.1909735474    -1.0829419995
15
attempt 3 | |g_proj| = 1.228e-03 | E = -3010.3262069973 Ha
C     -0.4697941368     1.2257661048     0.9572381524
C      0.8777007238     1.2259626412     0.9814572377
C      1.5129050556    -0.0021166864     0.7322270310
H     -1.0184653855     2.1404829939     1.1060987777
H      1.4696886855     2.1096692959     1.1689825260
N      2.9803417147     0.0146603367     0.6344349181
O      3.5606588397     0.4350665143     1.5968896949
O      3.4121983815    -0.3712136768    -0.4171832921
C     -0.4844890763    -1.2378365712     0.5864729102
H     -1.0415924159    -2.1573078488     0.4570966263
C      0.8724187491    -1.2245345906     0.5544333413
H      1.4477503486    -2.1171726918     0.3874046120
C     -1.2523375571     0.0087223666     0.6855935242
H     -2.1089065880    -0.0828860820     1.3538393572
Br    -1.9921580224     0.1802583733    -1.1195457169
