15
ortho_th54_ph234 | OPTIMIZED | |g_proj|=1.188e-03 | E=-3010.3368888886 Ha
C     -1.7832127151     1.9567238720     0.6727073573
C     -0.3629314276     1.9808238346     0.6996836390
C      0.3067299094     0.8184029063     0.6692290930
C     -2.5100505912     0.7763536878     0.6481056576
H     -2.3139644520     2.9017751849     0.6845202253
H      0.1704354521     2.9151595977     0.7542570471
H     -3.5886852979     0.7998983396     0.6240884974
N      1.7851875147     0.8446983236     0.7124631133
O      2.3498868750    -0.0443973805     0.1298038215
O      2.2684168295     1.7458564245     1.3426448793
C     -1.8266684501    -0.4019924518     0.7477567327
H     -2.3554563314    -1.3351615068     0.8490275812
C     -0.3635540466    -0.4882323730     0.7046446784
H      0.0626501856    -1.1216204570     1.4800449592
Br    -0.1922843955    -1.5638112062    -0.9292492500
