15
para_th18_ph198 | OPTIMIZED | |g_proj|=2.381e-04 | E=-3010.3572213069 Ha
C     -0.4766766815     1.2442460665     0.4673577187
C      0.8778911747     1.2539678772     0.6256104635
C      1.5278296156     0.0240690497     0.7248119265
H     -1.0377672890     2.1677969849     0.3890392232
H      1.4528387871     2.1684818763     0.6602385758
N      3.0198990619     0.0430079485     0.9097316950
O      3.5620463018    -1.0293364422     0.9165407906
O      3.5192974194     1.1278204602     1.0424768419
C     -0.4443161014    -1.2504153230     0.4994325072
H     -0.9810699742    -2.1896165476     0.4456211108
C      0.9101528155    -1.2237251974     0.6511457964
H      1.5094656187    -2.1222020875     0.6975264187
C     -1.2254727878    -0.0125109947     0.5238041442
H     -1.5724968119     0.0034538619     1.5716945757
Br    -2.8757018739    -0.0575170550    -0.4595921378
