15
attempt 1 | |g_proj| = 4.298e-03 | E = -3010.3564840043 Ha
C     -0.9170858122     2.0317631472     0.7404291925
C      0.4819066950     1.9643313298     0.7614940051
C      1.1558649858     0.7428485329     0.6363232484
C      0.4905540972    -0.4246923377     0.4866385899
C     -1.6316227463     0.8801158533     0.6117709461
H     -1.4094940269     2.9909582986     0.8221775976
H      1.0775786501     2.8625540625     0.8839186287
H      1.0295076091    -1.3571608073     0.3647820916
H     -2.7138732402     0.8940992092     0.5893165759
N      2.6444602740     0.7349028961     0.6743968832
O      3.1730996569    -0.3292864953     0.4959164629
O      3.1697898402     1.7985422670     0.8698570731
C     -0.9726738332    -0.4310550480     0.5554360459
H     -1.1684541433    -0.8319092964     1.5663185034
Br    -1.8013912592    -1.7244125678    -0.5873180937
15
attempt 2 | |g_proj| = 4.336e-03 | E = -3010.3565080380 Ha
C     -0.9162604875     2.0317000113     0.7446869064
C      0.4826782504     1.9631402710     0.7639119567
C      1.1571673046     0.7418953138     0.6398427817
C      0.4913557058    -0.4243632823     0.4858346218
C     -1.6324144118     0.8817332070     0.6106555817
H     -1.4093096812     2.9899665030     0.8233124764
H      1.0786268240     2.8626658874     0.8731845504
H      1.0283024039    -1.3591564331     0.3726653957
H     -2.7156670629     0.8915438523     0.6001806829
N      2.6439242037     0.7364171199     0.6705064881
O      3.1706983336    -0.3318658850     0.5141002270
O      3.1703516382     1.8026637963     0.8512663112
C     -0.9723144902    -0.4297052436     0.5621929523
H     -1.1749179216    -0.8427744775     1.5666869193
Br    -1.7940538606    -1.7122615916    -0.6075700965
15
attempt 3 | |g_proj| = 3.738e-03 | E = -3010.3565567742 Ha
C     -0.9175614808     2.0321151436     0.7457673686
C      0.4814268522     1.9649345677     0.7534459016
C      1.1559324033     0.7418530990     0.6411368046
C      0.4907567725    -0.4256152899     0.4986197166
C     -1.6318798808     0.8797658184     0.6254013719
H     -1.4097346872     2.9910010588     0.8262771144
H      1.0781434783     2.8636000629     0.8663184317
H      1.0284243196    -1.3588049910     0.3795934668
H     -2.7140917116     0.8922980781     0.6079119662
N      2.6441337307     0.7348403430     0.6722399036
O      3.1725343695    -0.3344688499     0.5301553198
O      3.1708945910     1.8047091934     0.8295639050
C     -0.9721718509    -0.4303389264     0.5632785545
H     -1.1829483068    -0.8557512854     1.5579525841
Br    -1.7856918493    -1.6985389690    -0.6262046498
15
attempt 4 | |g_proj| = 1.705e-03 | E = -3010.3565771734 Ha
C     -0.9169247965     2.0320697272     0.7460773227
C      0.4823011714     1.9642904428     0.7585236766
C      1.1567920267     0.7418902223     0.6405769473
C      0.4908685310    -0.4252653918     0.4959316344
C     -1.6321515564     0.8804314823     0.6214590549
H     -1.4097800914     2.9909439631     0.8264000793
H      1.0784686538     2.8643116061     0.8628552556
H      1.0285814438    -1.3594886314     0.3820752185
H     -2.7150679700     0.8917659314     0.6107235837
N      2.6443972888     0.7359014192     0.6713817021
O      3.1711290675    -0.3350580392     0.5322153990
O      3.1712562051     1.8055185706     0.8277493870
C     -0.9730161649    -0.4312048780     0.5643698279
H     -1.1845076700    -0.8585089200     1.5595193593
Br    -1.7841793879    -1.6959984465    -0.6284006842
