15
meta_th45_ph180 | OPTIMIZED | |g_proj|=1.963e-03 | E=-3010.3472151481 Ha
C     -0.9112761944     2.0345657280     0.7449983859
C      0.4862923445     1.9600232172     0.7944977936
C      1.1571504240     0.7343053060     0.6761948053
C      0.4908476620    -0.4339369558     0.5522354958
C     -1.6200464606     0.8832671489     0.6197270987
H     -1.3989772808     2.9968619913     0.7930931846
H      1.0829890505     2.8592444728     0.8995771376
H      1.0221943385    -1.3735709366     0.4670188757
H     -2.6990468381     0.8989490906     0.5823948816
N      2.6434023622     0.7364181447     0.6342372657
O      3.1636354432    -0.3431187570     0.5639811244
O      3.1694955005     1.8158895329     0.6960896786
C     -0.9736217088    -0.4351564067     0.6081632816
H     -1.2281286160    -0.9296732778     1.5536756274
Br    -1.7767432957    -1.6024693159    -0.7144269438
