15
attempt 1 | |g_proj| = 2.403e-03 | E = -3010.3316717215 Ha
C     -0.5033516116     1.2462118855     0.7443978919
C      0.8534472105     1.2570362003     0.7171849817
C      1.5046173526     0.0245769873     0.7028427593
H     -1.0648588171     2.1722480426     0.7463430181
H      1.4255150189     2.1716074127     0.7172465735
N      3.0060571307     0.0460205950     0.6986077772
O      3.5424364165    -1.0280420976     0.6939473736
O      3.5123582817     1.1347540928     0.6868931960
C     -0.4674162792    -1.2545388634     0.7542368885
H     -1.0018925553    -2.1965420346     0.7632825923
C      0.8891942227    -1.2259398090     0.7270468886
H      1.4872586839    -2.1235942191     0.7346325221
C     -1.2599864615    -0.0156718026     0.6697828927
H     -2.0826341983    -0.0246338518     1.3893832725
Br    -2.0748251628    -0.0359720605    -1.0803890328
15
attempt 2 | |g_proj| = 1.703e-03 | E = -3010.3316742033 Ha
C     -0.5037202397     1.2459059797     0.7442938940
C      0.8533548530     1.2573485141     0.7172606756
C      1.5042818732     0.0245734255     0.7028982869
H     -1.0647866769     2.1721197440     0.7466046404
H      1.4260867921     2.1719838817     0.7175648122
N      3.0056686736     0.0460688700     0.6986732919
O      3.5426168523    -1.0282015564     0.6934138969
O      3.5125141339     1.1348090446     0.6865318677
C     -0.4677896359    -1.2542146298     0.7541629589
H     -1.0018166360    -2.1963751036     0.7635495679
C      0.8891071015    -1.2262239553     0.7271366103
H      1.4878489598    -2.1239302503     0.7349213239
C     -1.2608852699    -0.0156751732     0.6695845250
H     -2.0827048246    -0.0246122221     1.3899646788
Br    -2.0738567210    -0.0360560913    -1.0811214306
