15
para_th36_ph90 | OPTIMIZED | |g_proj|=8.899e-04 | E=-3010.3472806387 Ha
C     -0.4790592287     1.2311110167     0.6346885619
C      0.8766459184     1.2475831655     0.6942544084
C      1.5337381219     0.0164824340     0.7169721359
H     -1.0449044484     2.1525223543     0.6328974901
H      1.4498909093     2.1615445396     0.7185421531
N      3.0184062080     0.0462487333     0.8279283474
O      3.5178310165    -0.8857095863     1.3984933034
O      3.5552152373     1.0026125701     0.3372038529
C     -0.4417152607    -1.2552647713     0.5363508357
H     -0.9757311996    -2.1916803964     0.4578298388
C      0.9119442027    -1.2344773591     0.6453195714
H      1.5121527070    -2.1314349287     0.6704814172
C     -1.2354553001    -0.0228961848     0.5934015190
H     -1.7986723964    -0.0965445857     1.5363410432
Br    -2.6343672337     0.1074234765    -0.7352648552
