15
attempt 1 | |g_proj| = 1.106e-04 | E = -3010.3542825542 Ha
C     -1.7945585992     1.9558050743     0.7568028755
C     -0.3772855297     1.9921462943     0.7212936207
C      0.2880581771     0.8258879949     0.6456715158
C     -2.5242072045     0.7679870741     0.7356127585
H     -2.3269963517     2.8988232017     0.8164641969
H      0.1620318276     2.9285743203     0.7683656025
H     -3.6044817806     0.7896166254     0.7691593535
N      1.7777658964     0.8385463383     0.7075235458
O      2.3098965134    -0.2411066437     0.7306521038
O      2.3008525161     1.9195703779     0.7378341727
C     -1.8471254372    -0.4164913510     0.6739796981
H     -2.3764526709    -1.3617462041     0.6620690655
C     -0.3810578394    -0.4825424137     0.6164036728
H      0.0070107516    -1.1091981116     1.4184698935
Br     0.0330487996    -1.5213957903    -0.9705740520
