15
attempt 1 | |g_proj| = 2.282e-03 | E = -3010.3390561587 Ha
C     -1.7768421880     1.9559644148     0.7058969922
C     -0.3613156321     1.9786451530     0.7145972763
C      0.3033496908     0.8146552126     0.6419660121
C     -2.5190446810     0.7841025768     0.6586764444
H     -2.2977741944     2.9025980393     0.7475378116
H      0.1819389461     2.9099635384     0.7778919184
H     -3.5989396951     0.8103298304     0.6344506479
N      1.7870453992     0.8516386440     0.6846436254
O      2.3574239940    -0.0233989398     0.0896284577
O      2.2693671954     1.7647970570     1.2998606592
C     -1.8484607990    -0.4049606490     0.7029062441
H     -2.3867307370    -1.3390514692     0.7781776537
C     -0.3813943102    -0.4890903746     0.6820581629
H     -0.0065703223    -1.0659214659     1.5223097772
Br    -0.0755536028    -1.6657947764    -0.8508736545
