15
para_th90_ph18 | OPTIMIZED | |g_proj|=1.877e-03 | E=-3010.3160423136 Ha
C     -0.5059241179     1.2400441028     0.8292194760
C      0.8504629950     1.2414787495     0.8200743534
C      1.4959179598     0.0134664786     0.7582421718
H     -1.0618467255     2.1672204842     0.8811754791
H      1.4181292277     2.1564426486     0.8180816392
N      2.9761377001     0.0450848040     0.6438874427
O      3.5650703969    -0.8840833572     1.1247034367
O      3.4069851222     0.9974107566     0.0540245477
C     -0.4617619418    -1.2566482096     0.7142211110
H     -0.9910339416    -2.1946727332     0.6487557408
C      0.8899156275    -1.2406430084     0.7560928427
H      1.4848674060    -2.1422813818     0.7497058174
C     -1.2525014239    -0.0157370777     0.6881742081
H     -2.1224284247    -0.0596030110     1.3351879505
Br    -1.9260706245     0.0800412323    -1.1561066178
