15
para_th72_ph270 | OPTIMIZED | |g_proj|=6.263e-04 | E=-3010.3366776792 Ha
C     -0.4620932268     1.2557801837     0.5497190163
C      0.8892720694     1.2569775069     0.5793271899
C      1.5362569853     0.0192951683     0.7132658547
H     -1.0132632823     2.1758885118     0.4421037629
H      1.4741757307     2.1569946213     0.5010061202
N      2.9986367715     0.0116441866     0.7369326170
O      3.5215886498    -0.3948364498    -0.2625950655
O      3.4870910225     0.4097105105     1.7577654250
C     -0.4681854765    -1.2067219070     0.8393445397
H     -1.0247989541    -2.1240593928     0.9428261088
C      0.8835945959    -1.2138024085     0.8341843482
H      1.4624172003    -2.1167582844     0.9241482468
C     -1.2466919618     0.0225776423     0.6651303774
H     -2.0145062575     0.1262825870     1.4366120852
Br    -2.2575745616    -0.2314519980    -0.9943309408
