15
para_th36_ph324 | OPTIMIZED | |g_proj|=2.245e-03 | E=-3010.3355778272 Ha
C     -0.4621426134     1.2509092021     0.4945577518
C      0.8900498158     1.2581169723     0.5944503517
C      1.5266367446     0.0194667051     0.7035057491
H     -1.0136833521     2.1739342444     0.3871520651
H      1.4717627669     2.1683656782     0.5995624673
N      3.0088176217     0.0269742572     0.8650551374
O      3.5786517977    -0.9584595022     0.4816796275
O      3.4703838610     1.0223329037     1.3542416490
C     -0.4589817308    -1.2411715051     0.6298167601
H     -1.0063900585    -2.1760977965     0.6345444310
C      0.8982958482    -1.2229060917     0.6926693768
H      1.4888292045    -2.1240042339     0.7393288983
C     -1.2314126131     0.0031963359     0.5744667375
H     -1.7086463948     0.0738704437     1.5720554467
Br    -2.6862515511    -0.1270071343    -0.6576467121
