15
ortho_th72_ph36 | OPTIMIZED | |g_proj|=1.299e-03 | E=-3010.3313415915 Ha
C     -1.7949830161     1.9438424158     0.7819160736
C     -0.3807575915     1.9902528414     0.7702529017
C      0.2776969105     0.8215549238     0.7321825485
C     -2.5115532009     0.7437208725     0.7755292025
H     -2.3423226263     2.8803732979     0.8029429286
H      0.1380742971     2.9326255051     0.7933291101
H     -3.5870588893     0.7679333584     0.8076173102
N      1.7479060581     0.7847496973     0.7632343347
O      2.2207183644    -0.0291786440     1.5152885523
O      2.3035552938     1.5434999070     0.0210877540
C     -1.8299290843    -0.4290709414     0.6981931748
H     -2.3472901683    -1.3741426203     0.6653992864
C     -0.3704834962    -0.4821901644     0.6100856463
H      0.0746918002    -1.2286931834     1.2686671806
Br     0.0482344751    -1.0808005486    -1.2159980492
