15
attempt 1 | |g_proj| = 1.576e-04 | E = -3010.3540574890 Ha
C     -1.7940121616     1.9552399369     0.7519040124
C     -0.3764312241     1.9905272477     0.7241926901
C      0.2899405188     0.8247749799     0.6501120247
C     -2.5237589381     0.7679716756     0.7283266988
H     -2.3265900088     2.8985131484     0.8054008180
H      0.1632848863     2.9265235879     0.7736770654
H     -3.6042557499     0.7897312830     0.7553481910
N      1.7801052689     0.8419065730     0.7058481497
O      2.3184458178    -0.2348777227     0.6925543333
O      2.2979937546     1.9240443824     0.7706865221
C     -1.8458061928    -0.4164365640     0.6801796849
H     -2.3755920166    -1.3612358059     0.6738398148
C     -0.3792704455    -0.4839417768     0.6232783456
H      0.0141010621    -1.1115962515     1.4220401757
Br     0.0083445052    -1.5266679165    -0.9676605123
