15
para_th36_ph342 | OPTIMIZED | |g_proj|=2.406e-03 | E=-3010.3327197791 Ha
C     -0.4694494042     1.2525299863     0.5491083341
C      0.8851498377     1.2562783883     0.6117049741
C      1.5233227704     0.0176561317     0.6992353704
H     -1.0212968967     2.1790648003     0.4697610165
H      1.4674527323     2.1659408905     0.6098772359
N      3.0129629243     0.0294056716     0.8359756197
O      3.5701947500    -1.0009645379     0.5697195257
O      3.4902162134     1.0736040212     1.1885287004
C     -0.4606701266    -1.2431378899     0.6520680490
H     -1.0060965054    -2.1788896473     0.6537424992
C      0.8969019099    -1.2262258800     0.6962530593
H      1.4877119708    -2.1283212074     0.7349379196
C     -1.2382102018     0.0010224147     0.5975747001
H     -1.7892505396     0.0466857726     1.5546882308
Br    -2.5830200733    -0.0971284352    -0.7577354795
