15
para_th81_ph90 | OPTIMIZED | |g_proj|=2.380e-04 | E=-3010.3360474912 Ha
C     -0.4784559989     1.2230565646     0.8394947695
C      0.8729422571     1.2399667956     0.8470804558
C      1.5370621328     0.0125585208     0.7158802067
H     -1.0431962027     2.1357332521     0.9387464587
H      1.4439517952     2.1466288959     0.9459583463
N      2.9978493529     0.0296012406     0.7123327371
O      3.5067760638    -0.1565769995     1.7819637851
O      3.4976790237     0.2274778335    -0.3592419352
C     -0.4511945275    -1.2411399797     0.5691049238
H     -0.9948980304    -2.1661084040     0.4662251021
C      0.8998835356    -1.2307376345     0.5883890693
H      1.4916547735    -2.1259182729     0.5066399920
C     -1.2465575192    -0.0139010787     0.6716076690
H     -2.0167551129    -0.1091949494     1.4418131342
Br    -2.2508222930     0.1760746933    -1.0005550964
