15
attempt 1 | |g_proj| = 3.732e-04 | E = -3010.3256556863 Ha
C     -0.5146461649     1.2287245315     0.8602971161
C      0.8430295660     1.2377908938     0.8127651180
C      1.4944702125     0.0129666033     0.7315982778
H     -1.0789674575     2.1516353244     0.9165473605
H      1.4110949217     2.1521647282     0.8223306806
N      2.9764344111     0.0474316691     0.6164771723
O      3.5622990366    -0.8826601548     1.0996475750
O      3.4176583480     0.9948073876     0.0234508419
C     -0.4687424150    -1.2642348967     0.7553004633
H     -1.0034028238    -2.2016631731     0.7383036437
C      0.8836297623    -1.2448290831     0.7540333428
H      1.4866667485    -2.1408569879     0.7677305014
C     -1.2615397717    -0.0237916068     0.6799516462
H     -2.1717379437    -0.0710610315     1.2757708651
Br    -1.8103271915     0.1510962739    -1.1887650003
