15
attempt 1 | |g_proj| = 2.186e-03 | E = -3010.3477078871 Ha
C     -0.4667953282     1.2482559124     0.4703331572
C      0.8868919436     1.2567859841     0.5987169830
C      1.5325644065     0.0225404213     0.7120299912
H     -1.0230295220     2.1701419132     0.3693763959
H      1.4673534402     2.1675779788     0.6184480964
N      3.0188286037     0.0315143727     0.8900858233
O      3.5842187968    -0.9881349844     0.6000898872
O      3.4909573417     1.0571576193     1.3008228298
C     -0.4519521502    -1.2395434737     0.5793123379
H     -0.9961658017    -2.1751800950     0.5614444632
C      0.9052209480    -1.2209119364     0.6778303068
H      1.4993941184    -2.1209937188     0.7251795386
C     -1.2305346501    -0.0003183219     0.5501843481
H     -1.6598190010     0.0641978903     1.5698950565
Br    -2.7912138363    -0.1255690835    -0.5583095232
15
attempt 2 | |g_proj| = 1.401e-03 | E = -3010.3477095585 Ha
C     -0.4668434040     1.2481175108     0.4703468131
C      0.8870475580     1.2568766555     0.5988193111
C      1.5325667878     0.0228249444     0.7119833012
H     -1.0228795483     2.1702017425     0.3698653920
H      1.4673372425     2.1677508871     0.6183819969
N      3.0185604312     0.0315532760     0.8896790276
O      3.5839305177    -0.9881409105     0.5999544224
O      3.4909231860     1.0570511421     1.3007275222
C     -0.4520697932    -1.2396225529     0.5793318213
H     -0.9962589054    -2.1753103024     0.5618167681
C      0.9047790162    -1.2209065742     0.6778994439
H      1.4992104288    -2.1208347288     0.7251397251
C     -1.2301032842    -0.0003040111     0.5514003729
H     -1.6596518361     0.0641730044     1.5695606272
Br    -2.7906290839    -0.1259096043    -0.5594668487
