15
attempt 1 | |g_proj| = 2.976e-03 | E = -3010.3544181039 Ha
C     -0.9106423649     2.0310395349     0.7102275396
C      0.4830791930     1.9526160529     0.8008692071
C      1.1576247491     0.7363933615     0.6388309197
C      0.4884530146    -0.4228230696     0.4462871997
C     -1.6314394034     0.8886980441     0.5259245266
H     -1.4008475458     2.9899913141     0.7787161394
H      1.0781129087     2.8390583616     0.9893537260
H      1.0241323799    -1.3561416685     0.3263927644
H     -2.7131007120     0.9090306653     0.4667430992
N      2.6427200134     0.7311902386     0.6688179629
O      3.1752906573    -0.2667452607     0.2652538666
O      3.1664754287     1.7269777903     1.0942851275
C     -0.9734547034    -0.4230851725     0.5489769061
H     -1.1177031525    -0.6978392372     1.6083812369
Br    -1.8605337098    -1.8367618891    -0.3976024490
15
attempt 2 | |g_proj| = 2.213e-03 | E = -3010.3544268355 Ha
C     -0.9105402404     2.0309530092     0.7097543604
C      0.4831296777     1.9527924119     0.8010535824
C      1.1570221677     0.7377268498     0.6392478511
C      0.4887407981    -0.4225451405     0.4453448196
C     -1.6314665653     0.8889565552     0.5239706697
H     -1.4008999453     2.9902843543     0.7782429798
H      1.0781076551     2.8391681827     0.9883663625
H      1.0241418851    -1.3560902430     0.3246185493
H     -2.7133079702     0.9088938617     0.4679174065
N      2.6435014849     0.7319914047     0.6662472863
O      3.1758909804    -0.2666986666     0.2638481354
O      3.1656522974     1.7248175490     1.1001783978
C     -0.9736384326    -0.4236234307     0.5493247225
H     -1.1171843651    -0.6970621657     1.6080809996
Br    -1.8609826734    -1.8379654618    -0.3947383458
15
attempt 3 | |g_proj| = 3.193e-03 | E = -3010.3544324664 Ha
C     -0.9109226767     2.0313786746     0.7079836782
C      0.4829489434     1.9532718006     0.7995305691
C      1.1579978247     0.7369109880     0.6362369373
C      0.4886275548    -0.4220624931     0.4434346682
C     -1.6315315093     0.8886255942     0.5241543327
H     -1.4010310197     2.9903129483     0.7769965806
H      1.0781077736     2.8402290109     0.9870339259
H      1.0242676609    -1.3548224013     0.3203593783
H     -2.7134473485     0.9087563515     0.4690650249
N      2.6426167588     0.7305181729     0.6702712830
O      3.1764218431    -0.2632504972     0.2579028396
O      3.1652835477     1.7205234902     1.1103249612
C     -0.9729255235    -0.4227172264     0.5480912647
H     -1.1158790132    -0.6946158878     1.6089323822
Br    -1.8623680608    -1.8414594507    -0.3888600445
15
attempt 4 | |g_proj| = 2.222e-03 | E = -3010.3544405886 Ha
C     -0.9103659181     2.0312083438     0.7076227427
C      0.4832797058     1.9534295862     0.7986654315
C      1.1570058548     0.7382057639     0.6373836725
C      0.4886704798    -0.4218449197     0.4418649814
C     -1.6315358365     0.8889492356     0.5233000578
H     -1.4010790583     2.9903484478     0.7763345738
H      1.0777312405     2.8398272668     0.9863820811
H      1.0244650121    -1.3550662789     0.3187591569
H     -2.7135703816     0.9085815711     0.4697448791
N      2.6435511273     0.7313854203     0.6681665393
O      3.1765991151    -0.2631837434     0.2562948147
O      3.1644382182     1.7188195203     1.1160535949
C     -0.9735134455    -0.4236411636     0.5486187210
H     -1.1146422545    -0.6931673361     1.6086209650
Br    -1.8628671023    -1.8422526346    -0.3863544257
15
attempt 5 | |g_proj| = 2.394e-03 | E = -3010.3544463388 Ha
C     -0.9109158191     2.0312554102     0.7065258430
C      0.4830004039     1.9532482249     0.7982688056
C      1.1577689373     0.7374182602     0.6352281202
C      0.4887589698    -0.4218766011     0.4410788871
C     -1.6316513789     0.8885552739     0.5233797372
H     -1.4011113903     2.9903557328     0.7754020333
H      1.0779275529     2.8405627822     0.9855860992
H      1.0243790459    -1.3542444126     0.3162915798
H     -2.7135802716     0.9085575587     0.4703125549
N      2.6425036030     0.7303512825     0.6711755751
O      3.1768250684    -0.2606774511     0.2528610667
O      3.1641291366     1.7162493914     1.1214072779
C     -0.9727271962    -0.4227651579     0.5476791399
H     -1.1130950324    -0.6914661002     1.6096077346
Br    -1.8640448711    -1.8439251097    -0.3833466641
15
attempt 6 | |g_proj| = 1.425e-03 | E = -3010.3544504259 Ha
C     -0.9104925393     2.0312308449     0.7064701570
C      0.4832442438     1.9534504152     0.7978373139
C      1.1571783521     0.7380867551     0.6358516827
C      0.4887062595    -0.4216888895     0.4403938739
C     -1.6316158131     0.8887654504     0.5231460290
H     -1.4011647252     2.9903646956     0.7751595909
H      1.0776438329     2.8401802707     0.9854027199
H      1.0245181974    -1.3545263599     0.3157789833
H     -2.7136810064     0.9084326920     0.4704824194
N      2.6430792518     0.7306630353     0.6703855737
O      3.1768867781    -0.2608768661     0.2522812192
O      3.1637543407     1.7158790323     1.1233726362
C     -0.9731180925    -0.4233949774     0.5481126220
H     -1.1126031824    -0.6909121031     1.6092552802
Br    -1.8641691380    -1.8440549067    -0.3824723065
