15
attempt 1 | |g_proj| = 7.873e-04 | E = -3010.3518950481 Ha
C     -0.4825829517     1.2415294923     0.5586332165
C      0.8748428636     1.2548429232     0.6556766050
C      1.5288463964     0.0236256609     0.7116277154
H     -1.0466788785     2.1650275397     0.5105851140
H      1.4500289845     2.1693889205     0.6886146693
N      3.0260753817     0.0488573943     0.8516913552
O      3.5659102342    -1.0223904057     0.9185996595
O      3.5317312593     1.1385093562     0.8762083293
C     -0.4462709556    -1.2545493763     0.5637812929
H     -0.9831691054    -2.1946705813     0.5233476438
C      0.9110736193    -1.2272126252     0.6638725310
H      1.5121918111    -2.1247093601     0.7070484389
C     -1.2341717965    -0.0173406264     0.5633022375
H     -1.7397498282    -0.0260565847     1.5441815671
Br    -2.7021577988    -0.0273312498    -0.6717307759
