15
attempt 1 | |g_proj| = 2.060e-03 | E = -3010.3201681313 Ha
C     -1.7653956839     1.9127303409     0.7245256556
C     -0.3590921451     1.9668245622     0.7270824600
C      0.3015076173     0.8006084257     0.7289009240
C     -2.4943558334     0.7267937092     0.7836233379
H     -2.3036689285     2.8479438654     0.6960974233
H      0.1746257010     2.9049885307     0.7486859148
H     -3.5711815921     0.7457667002     0.8257852093
N      1.7682857791     0.8055568612     0.8298542544
O      2.2019785664     0.0591839977     1.6703511217
O      2.3594166043     1.5691586791     0.1190366333
C     -1.8273467478    -0.4575027724     0.7649686889
H     -2.3580860067    -1.4004801217     0.7633344234
C     -0.3653661782    -0.5011600106     0.5863133418
H      0.1346115098    -1.2862963309     1.1460379487
Br    -0.2494335433    -0.9096397101    -1.3248693730
