15
ortho_th54_ph72 | OPTIMIZED | |g_proj|=2.281e-03 | E=-3010.3303950371 Ha
C     -1.7915091046     1.9308831742     0.7525260734
C     -0.3830330495     1.9854996480     0.7288146763
C      0.2858240986     0.8178571969     0.7376303602
C     -2.5183041519     0.7343255319     0.7987936433
H     -2.3400429190     2.8645748815     0.7512834980
H      0.1418808038     2.9262268376     0.7225822152
H     -3.5961951686     0.7584593475     0.8653696659
N      1.7583548447     0.7771308491     0.7939745011
O      2.2101256721    -0.0641765956     1.5293614062
O      2.3428223016     1.5633974930     0.1032379189
C     -1.8375733947    -0.4353726816     0.7262692169
H     -2.3590417903    -1.3791199800     0.6992243694
C     -0.3731299966    -0.4829361379     0.5936999096
H      0.0793420267    -1.2386163238     1.2362149889
Br     0.0269789266    -0.9736564913    -1.2492544567
