15
attempt 1 | |g_proj| = 7.157e-04 | E = -3010.3368183617 Ha
C     -0.4809710548     1.2200042173     0.8222742717
C      0.8706786998     1.2407642197     0.8145756992
C      1.5351992227     0.0122075832     0.7182729593
H     -1.0453077413     2.1342069651     0.9091358416
H      1.4384706159     2.1524837005     0.8809527456
N      2.9986510792     0.0347667409     0.7141944832
O      3.5158144446    -0.3634787943     1.7204221259
O      3.4950349474     0.4503316984    -0.2954539469
C     -0.4506956231    -1.2480759236     0.5866300401
H     -0.9902179072    -2.1767096684     0.4947348543
C      0.9003213630    -1.2356772638     0.6237475632
H      1.4934637855    -2.1326644718     0.5734609580
C     -1.2470305987    -0.0198394612     0.6697018168
H     -2.0213010806    -0.1143219249     1.4355632999
Br    -2.2461909027     0.1935228605    -1.0027730943
