15
para_th9_ph72 | OPTIMIZED | |g_proj|=1.835e-04 | E=-3010.3544381285 Ha
C     -0.4821457653     1.2402085803     0.5440376907
C      0.8749233509     1.2535170621     0.6537320252
C      1.5298826118     0.0235925909     0.7155588507
H     -1.0472587791     2.1633812288     0.4984164900
H      1.4489519519     2.1685125722     0.6874053524
N      3.0244297557     0.0499440803     0.8731819322
O      3.5536733940    -1.0146853824     1.0470449140
O      3.5398249830     1.1333693286     0.8075038170
C     -0.4428292862    -1.2547626156     0.5281200650
H     -0.9791171177    -2.1941218537     0.4713033139
C      0.9135229088    -1.2270128629     0.6472716035
H      1.5152960570    -2.1241431475     0.6860178243
C     -1.2306278722    -0.0190179491     0.5514357591
H     -1.6870115216    -0.0413322963     1.5564781651
Br    -2.7655954248    -0.0099288576    -0.6020681897
