15
meta_th81_ph180 | OPTIMIZED | |g_proj|=9.118e-04 | E=-3010.3306014642 Ha
C     -0.9173472220     2.0250876746     0.7718840056
C      0.4805101357     1.9526563013     0.7137847115
C      1.1461953888     0.7226293453     0.6794944311
C      0.4831142075    -0.4512518213     0.6918475201
C     -1.6196033840     0.8689651918     0.7706188863
H     -1.3993029331     2.9893472293     0.8015610630
H      1.0741201170     2.8581482549     0.6856878414
H      1.0120312715    -1.3940655425     0.6648065405
H     -2.6955089902     0.8813692046     0.8015340713
N      2.6252880872     0.7198434116     0.5991821909
O      3.1496827602    -0.3551751581     0.6948823133
O      3.1364026157     1.7962134950     0.4452781672
C     -0.9803544596    -0.4511289904     0.7038392827
H     -1.3677606352    -1.1352293306     1.4588477293
Br    -1.5193002347    -1.2258103060    -1.0117910846
