15
ortho_th63_ph324 | OPTIMIZED | |g_proj|=2.700e-03 | E=-3010.3247478313 Ha
C     -1.7613670287     1.9552681569     0.6788072052
C     -0.3495601723     1.9775074908     0.6309915651
C      0.2971110010     0.8051741901     0.6204399646
C     -2.5057456025     0.7841083752     0.7316233192
H     -2.2764820351     2.9039406667     0.6960883597
H      0.1869091600     2.9158504914     0.6441759926
H     -3.5804644040     0.8169411634     0.7811678403
N      1.7759558077     0.8495124034     0.7245981395
O      2.3792971495     0.0664329138     0.0438361086
O      2.2101937025     1.6878354980     1.4695618811
C     -1.8555067640    -0.4129684818     0.7178759987
H     -2.4025927725    -1.3472295832     0.7626287337
C     -0.3902511141    -0.5019732836     0.6628962728
H     -0.0400263362    -1.0837036790     1.5141915114
Br    -0.0409715192    -1.6322195400    -0.8891548735
