15
attempt 1 | |g_proj| = 3.319e-03 | E = -3010.3519959155 Ha
C     -1.7955986222     1.9500600393     0.7452867159
C     -0.3783336227     1.9902155298     0.7113887757
C      0.2862770673     0.8221575059     0.6695284016
C     -2.5237650200     0.7595649910     0.7578312739
H     -2.3310170393     2.8931976559     0.7861429685
H      0.1591150350     2.9284616120     0.7442119287
H     -3.6034816108     0.7838872187     0.7997825460
N      1.7753227039     0.8240985709     0.7290317727
O      2.2942150469    -0.2526384513     0.8784340051
O      2.3089936085     1.8961225161     0.6352261443
C     -1.8465172346    -0.4231574123     0.6976569210
H     -2.3752459986    -1.3676623775     0.6766558485
C     -0.3807436559    -0.4855366241     0.6130390253
H      0.0216992351    -1.1403726615     1.3869982402
Br     0.0355792462    -1.3939214096    -1.0414866266
15
attempt 2 | |g_proj| = 1.777e-03 | E = -3010.3520327169 Ha
C     -1.7955148434     1.9508323224     0.7483175434
C     -0.3782523924     1.9921814941     0.7162358781
C      0.2853240325     0.8240385446     0.6714481177
C     -2.5239867069     0.7602002069     0.7567327884
H     -2.3312217694     2.8935813644     0.7803267510
H      0.1607501957     2.9299022280     0.7413286934
H     -3.6038329270     0.7825372881     0.8013852355
N      1.7736811291     0.8250313537     0.7301430481
O      2.2877485597    -0.2522277318     0.8920940963
O      2.3120598902     1.8934701683     0.6237927832
C     -1.8472152633    -0.4234869157     0.6967514368
H     -2.3744884612    -1.3697562827     0.6800185766
C     -0.3811709377    -0.4844870604     0.6173075427
H      0.0269204214    -1.1527497941     1.3767891912
Br     0.0356982077    -1.3845904781    -1.0429437370
