15
attempt 1 | |g_proj| = 1.119e-03 | E = -3010.3503525138 Ha
C     -0.4673259898     1.2483706076     0.4677361585
C      0.8868267326     1.2561062291     0.5994743046
C      1.5331095936     0.0225828799     0.7131774580
H     -1.0241536884     2.1704741030     0.3684216141
H      1.4671213991     2.1666356647     0.6186016380
N      3.0192333796     0.0316438180     0.8890759982
O      3.5856029521    -0.9880438315     0.6012209184
O      3.4910757213     1.0568591590     1.3015605637
C     -0.4509010753    -1.2390299198     0.5767962744
H     -0.9955484360    -2.1741335214     0.5609786841
C      0.9054424622    -1.2218268440     0.6786185103
H      1.5004174295    -2.1218963310     0.7252680740
C     -1.2294958311     0.0001445500     0.5525482586
H     -1.6599328973     0.0642113410     1.5686855461
Br    -2.7955524463    -0.1245774261    -0.5567243138
