15
attempt 1 | |g_proj| = 9.534e-04 | E = -3010.3169862914 Ha
C     -1.7485738597     1.9384409993     0.5580468790
C     -0.3477301434     1.9660022626     0.5082772708
C      0.2993967941     0.7974659089     0.6486245255
C     -2.4988793707     0.7779750472     0.7514730844
H     -2.2714608238     2.8746457626     0.4499204452
H      0.1965597943     2.8915786149     0.3917827284
H     -3.5751341382     0.8193258347     0.7932792767
N      1.7620618055     0.8189238821     0.7448481825
O      2.3796916754     0.8429822890    -0.2814041266
O      2.1557812636     0.8559939567     1.8816516248
C     -1.8540463672    -0.4071035669     0.8753978861
H     -2.4005184681    -1.3320055387     1.0053549780
C     -0.3865703356    -0.4982983455     0.7760492429
H      0.0410147817    -1.0908971496     1.5800405965
Br    -0.1050935520    -1.4705531570    -0.8936145555
