15
meta_th0_ph0 | OPTIMIZED | |g_proj|=1.103e-03 | E=-3010.3598767636 Ha
C     -0.9186303669     2.0278464215     0.7569136255
C      0.4809703735     1.9624652538     0.7431608896
C      1.1590337979     0.7376559496     0.6542902332
C      0.4945935259    -0.4334047958     0.5419709890
C     -1.6320340288     0.8721656813     0.6685327895
H     -1.4121671648     2.9875046809     0.8260135389
H      1.0796395582     2.8664671452     0.7955844463
H      1.0340168678    -1.3690430981     0.4507976189
H     -2.7154498460     0.8808494116     0.6754524687
N      2.6479446865     0.7432039078     0.6604200118
O      3.1805537529    -0.3332502546     0.6298043096
O      3.1715533778     1.8257517475     0.7017332881
C     -0.9724503622    -0.4393791281     0.5943120965
H     -1.2281321883    -0.9613927556     1.5252655619
Br    -1.7612752709    -1.5658412532    -0.7527942424
