15
ortho_th36_ph234 | OPTIMIZED | |g_proj|=3.994e-03 | E=-3010.3460605362 Ha
C     -1.7896256417     1.9543896780     0.7059857836
C     -0.3687525655     1.9858901239     0.7174810509
C      0.3010017557     0.8237852548     0.6692967349
C     -2.5145091019     0.7712605229     0.6812623702
H     -2.3225069200     2.8979495559     0.7181461478
H      0.1676137668     2.9201432494     0.7712617673
H     -3.5940207902     0.7898597227     0.6789326208
N      1.7860167888     0.8427529780     0.7268112571
O      2.3387461449    -0.1982338620     0.4796691942
O      2.2886501247     1.8895251882     1.0312374574
C     -1.8291195279    -0.4108069030     0.7212383810
H     -2.3563908782    -1.3506165178     0.7895238304
C     -0.3656505741    -0.4820402125     0.6735903020
H      0.0733906436    -1.1474841976     1.4138085516
Br    -0.1683441685    -1.5018977803    -0.9885174100
