15
para_th27_ph144 | OPTIMIZED | |g_proj|=1.599e-03 | E=-3010.3542493076 Ha
C     -0.4755137164     1.2409292106     0.5473692426
C      0.8790268876     1.2527388070     0.6725222812
C      1.5297580616     0.0201588029     0.7299691102
H     -1.0384265769     2.1648157599     0.5134267369
H      1.4548738994     2.1668570028     0.7018941932
N      3.0227644423     0.0442492382     0.8651161648
O      3.5338121203    -0.9880723186     1.2069242631
O      3.5525202303     1.0973354364     0.6321650399
C     -0.4442956704    -1.2535039329     0.5041685584
H     -0.9811388180    -2.1917572182     0.4309635518
C      0.9097536729    -1.2276348961     0.6546863354
H      1.5085212815    -2.1256848115     0.6924627322
C     -1.2283664292    -0.0164437814     0.5526023298
H     -1.6785119111    -0.0556723645     1.5559256423
Br    -2.7788581976     0.0192055431    -0.5947565318
