15
attempt 1 | |g_proj| = 1.414e-03 | E = -3010.3325437799 Ha
C     -0.9172512185     2.0209746430     0.7738068071
C      0.4811093170     1.9627926052     0.7092794410
C      1.1475898261     0.7313904478     0.6664777750
C      0.4808054639    -0.4402183861     0.6874522196
C     -1.6199482157     0.8630817380     0.7735041965
H     -1.4015732591     2.9812574229     0.8136126126
H      1.0698936861     2.8735244177     0.6877819883
H      1.0105775582    -1.3800704882     0.6722584741
H     -2.6955782229     0.8744110159     0.8094080984
N      2.6264374714     0.7192776046     0.5964647819
O      3.1286710882    -0.3615359727     0.7247634193
O      3.1635304408     1.7811076905     0.4231223505
C     -0.9801889350    -0.4530810207     0.7015699397
H     -1.3688991009    -1.1445981492     1.4514143159
Br    -1.5170091759    -1.2267146138    -1.0194587546
