15
attempt 1 | |g_proj| = 1.039e-03 | E = -3010.3333106752 Ha
C     -0.9095078072     2.0055970700     0.7942916311
C      0.4820289409     1.9509956583     0.6896896140
C      1.1546523900     0.7170804878     0.6537878247
C      0.4893720361    -0.4519228533     0.6608819636
C     -1.6153131258     0.8447574483     0.8099695150
H     -1.3980442472     2.9609965237     0.8612811662
H      1.0714487677     2.8609580566     0.6476543850
H      1.0199154668    -1.3905754033     0.6506834915
H     -2.6918165253     0.8500128511     0.8871766603
N      2.6296341133     0.7305162094     0.6271168710
O      3.1552533393    -0.2263464641     1.1222508710
O      3.1489542445     1.6983963798     0.1349051021
C     -0.9754020361    -0.4655601594     0.6664108835
H     -1.3697859189    -1.2053393262     1.3649372164
Br    -1.5832229134    -1.0779675186    -1.0995795255
