15
attempt 1 | |g_proj| = 2.527e-04 | E = -3010.3347780813 Ha
C     -0.5093158782     1.2317293359     0.8001891592
C      0.8485586782     1.2452920720     0.7637413237
C      1.5033980430     0.0170567050     0.7177396368
H     -1.0755756797     2.1545361817     0.8359017532
H      1.4204842142     2.1594930709     0.7692849447
N      2.9978949456     0.0508704671     0.6668031769
O      3.5566102135    -0.9583028925     1.0014034521
O      3.4791107591     1.0808622872     0.2776772162
C     -0.4649245232    -1.2638031265     0.7307854632
H     -0.9994387912    -2.2035055049     0.7160083626
C      0.8907173222    -1.2391374933     0.7348841289
H      1.4954369490    -2.1341383210     0.7553497047
C     -1.2611469792    -0.0254921082     0.6673492363
H     -2.1141212415    -0.0701475494     1.3481324372
Br    -2.0017687892     0.1022073537    -1.1198103864
