molecule  {
0 1
         C            0.523578368385     1.255907785448    -0.060108858355
         C            1.911089087752     1.274081125765    -0.035970404937
         C            2.586548139142     0.067568552449     0.062788051395
         C           -0.160795572442     0.047393321989     0.013540917303
         H           -0.023965515386     2.188338822606    -0.136885192421
         H            2.471267935054     2.197833002904    -0.091532234671
         H           -1.245234987349     0.039358856807    -0.005922238394
         N            4.062760228321     0.078511442088     0.089174377413
         O            4.631058688723    -0.990736191228     0.175051091672
         O            4.617724061111     1.156143880671     0.023406499990
         C            0.538237288023    -1.150954890653     0.112080262692
         H            0.001985729920    -2.091327023106     0.169370283313
         C            1.925841172126    -1.148768075020     0.137786172505
         H            2.497157976620    -2.064141160720     0.214213842495
no_com
no_reorient
symmetry c1
}

energy('scf/sto-3g')
