15
ortho_th9_ph198 | OPTIMIZED | |g_proj|=2.195e-04 | E=-3010.3515849255 Ha
C     -1.7933290244     1.9502272523     0.7326841187
C     -0.3754987226     1.9898069774     0.7196205931
C      0.2908288238     0.8233219905     0.6753171919
C     -2.5208548044     0.7607141310     0.7355731589
H     -2.3286442681     2.8933338579     0.7544720669
H      0.1613669832     2.9279113475     0.7575834631
H     -3.6011002315     0.7818725008     0.7621114517
N      1.7800832307     0.8341996120     0.7282668760
O      2.3101646450    -0.2461680524     0.7802930963
O      2.3041057326     1.9150384835     0.7342022581
C     -1.8413415078    -0.4229635668     0.7120737343
H     -2.3678906610    -1.3697581615     0.7170039722
C     -0.3750360456    -0.4859799626     0.6308043028
H      0.0475735074    -1.1503395838     1.3848747526
Br    -0.0439285652    -1.4167400669    -1.0351530407
