15
attempt 1 | |g_proj| = 2.726e-03 | E = -3010.3345930518 Ha
C     -1.7795825473     1.9271515291     0.6894690535
C     -0.3642474368     1.9765719978     0.7119489537
C      0.2968424749     0.8108068243     0.7357070551
C     -2.5058972146     0.7398839182     0.7580620715
H     -2.3137692366     2.8680440921     0.6435841528
H      0.1691304727     2.9168355083     0.7278247772
H     -3.5844632887     0.7616668597     0.7845719632
N      1.7791458042     0.8154869199     0.8031843385
O      2.2781201643    -0.2082858229     1.1970505555
O      2.3235285081     1.8428044760     0.5046821461
C     -1.8302074105    -0.4445328272     0.7849109062
H     -2.3588622093    -1.3895412423     0.8156284724
C     -0.3672412447    -0.4975708819     0.6218987580
H      0.1198220700    -1.2554490785     1.2345346161
Br    -0.2158198295    -1.0793954948    -1.2233298037
