15
attempt 1 | |g_proj| = 1.043e-03 | E = -3010.3357174882 Ha
C     -1.7850530141     1.9500740995     0.6801513158
C     -0.3609183285     1.9853450448     0.7060489635
C      0.2992793015     0.8212299234     0.7025778242
C     -2.5006352935     0.7629560038     0.6914742750
H     -2.3196292081     2.8937764237     0.6621287808
H      0.1659221808     2.9255499331     0.7489661259
H     -3.5766461661     0.7801043150     0.6827980781
N      1.7811553473     0.8318824467     0.7594820471
O      2.3183842732    -0.2339031230     0.5978517462
O      2.2866496874     1.8951009325     0.9899560600
C     -1.8172207926    -0.4192894104     0.7664768959
H     -2.3423741624    -1.3606038583     0.8385637569
C     -0.3578114905    -0.4896447073     0.6770536695
H      0.1048668325    -1.1959384944     1.3652304188
Br    -0.2494701002    -1.3621627425    -1.0790319343
