15
meta_th81_ph288 | OPTIMIZED | |g_proj|=6.505e-04 | E=-3010.3243923190 Ha
C     -0.8902869453     2.0249696378     0.6266044888
C      0.4969103397     1.9432506081     0.7305881057
C      1.1649400634     0.7139756470     0.6286158518
C      0.4837530521    -0.4357708926     0.4884144133
C     -1.6229630101     0.8802005219     0.5470164932
H     -1.3728364986     2.9844644385     0.6276629617
H      1.0927935856     2.8363573481     0.8707861982
H      0.9976687762    -1.3757940600     0.3701619443
H     -2.7049472438     0.9037501863     0.5121131271
N      2.6366790163     0.7371434345     0.6673856742
O      3.2046777106     0.1883586679    -0.2353779766
O      3.1144993843     1.3246084840     1.6042821926
C     -0.9776320829    -0.4328669785     0.6314483251
H     -1.1139094143    -0.6709260667     1.7076937509
Br    -1.9011800009    -1.8201219892    -0.3059378538
