15
para_th45_ph198 | OPTIMIZED | |g_proj|=1.661e-03 | E=-3010.3419143061 Ha
C     -0.4703983320     1.2489898836     0.4381375818
C      0.8815102977     1.2482908969     0.6081706819
C      1.5200576478     0.0166187007     0.7314873192
H     -1.0219179829     2.1759815624     0.3386097871
H      1.4633421081     2.1574140219     0.6275902207
N      3.0091793097     0.0332190827     0.9093545925
O      3.5627082374    -1.0277430983     0.8095108672
O      3.4900670889     1.1058354404     1.1551122513
C     -0.4495528540    -1.2452275964     0.5087955287
H     -0.9885688671    -2.1811320275     0.4572650319
C      0.9009726057    -1.2292552682     0.6730496759
H      1.4904941799    -2.1333650187     0.7226340644
C     -1.2255069438    -0.0025043637     0.5325318176
H     -1.5250169222     0.0343801551     1.5967682484
Br    -2.8714502674    -0.0539818919    -0.4435779825
