15
ortho_th63_ph90 | OPTIMIZED | |g_proj|=2.033e-03 | E=-3010.3243133988 Ha
C     -1.7806020972     1.9187593383     0.7614761742
C     -0.3775451130     1.9804258894     0.7581246485
C      0.2971463906     0.8146551241     0.7480526366
C     -2.5132674809     0.7249456734     0.7887105269
H     -2.3287130105     2.8491761129     0.7572953034
H      0.1440856552     2.9230657155     0.7715739356
H     -3.5922035338     0.7453040403     0.8384703265
N      1.7647608877     0.7805116417     0.7989537769
O      2.2060493049     0.1180728612     1.7035430202
O      2.3528015260     1.3977968938    -0.0433073945
C     -1.8355462899    -0.4436442435     0.7286504124
H     -2.3598322529    -1.3867185335     0.6953505471
C     -0.3684309628    -0.4837259299     0.5852680115
H      0.0974864485    -1.2560170535     1.1938951858
Br    -0.0596903450    -0.8981308128    -1.2963291562
