15
attempt 1 | |g_proj| = 2.240e-03 | E = -3010.3500158866 Ha
C     -1.7946144753     1.9496359270     0.7450714298
C     -0.3782938275     1.9908328992     0.7148533150
C      0.2860812798     0.8227172113     0.6768737873
C     -2.5233379896     0.7589701975     0.7578004634
H     -2.3310738745     2.8918900927     0.7776782634
H      0.1598865855     2.9285673871     0.7419175995
H     -3.6032531424     0.7818326664     0.8009465773
N      1.7744605651     0.8234276458     0.7314175574
O      2.2901620039    -0.2514498886     0.9039603245
O      2.3114386630     1.8914856305     0.6152655445
C     -1.8469220419    -0.4241424386     0.7016626762
H     -2.3753347821    -1.3696574960     0.6812430124
C     -0.3799946747    -0.4859920602     0.6135530063
H      0.0278026604    -1.1515516389     1.3781420083
Br     0.0294921695    -1.3720894092    -1.0506576017
15
attempt 2 | |g_proj| = 1.982e-03 | E = -3010.3500161805 Ha
C     -1.7946910765     1.9495707327     0.7449903114
C     -0.3781377401     1.9907789617     0.7149373197
C      0.2860399629     0.8226511588     0.6768786362
C     -2.5233391895     0.7590145731     0.7578320554
H     -2.3310120363     2.8918072094     0.7774928359
H      0.1598898334     2.9285287857     0.7419102419
H     -3.6032472428     0.7817805999     0.8009320682
N      1.7744986722     0.8234511640     0.7315981183
O      2.2902134171    -0.2513988169     0.9044661820
O      2.3114581320     1.8914278925     0.6148542653
C     -1.8467759871    -0.4242649838     0.7016903344
H     -2.3753859071    -1.3697124783     0.6813466827
C     -0.3800140659    -0.4860386674     0.6139973855
H      0.0278153700    -1.1514963523     1.3779164003
Br     0.0291869730    -1.3716230484    -1.0511148689
