15
attempt 1 | |g_proj| = 3.908e-03 | E = -3010.3220269613 Ha
C     -1.7713609668     1.9559000454     0.5817026958
C     -0.3713476190     1.9922244816     0.5576289786
C      0.2995169525     0.8253803677     0.6643022151
C     -2.5170058479     0.7799087138     0.7276779979
H     -2.3090273112     2.8876606117     0.4852787547
H      0.1566167210     2.9255652048     0.4591083873
H     -3.5969742055     0.8153525138     0.7425436733
N      1.7637946872     0.7902180888     0.7019317934
O      2.3296842873     0.7581194667    -0.3532701608
O      2.2208810876     0.7787304303     1.8148072160
C     -1.8498922304    -0.3884865816     0.8399173098
H     -2.3801705876    -1.3200930003     0.9495250165
C     -0.3783841140    -0.4745442511     0.7817940811
H      0.0179645210    -1.0194564316     1.6392955992
Br     0.0322036976    -1.5220028785    -0.8025155381
15
attempt 2 | |g_proj| = 4.694e-03 | E = -3010.3221598561 Ha
C     -1.7653935149     1.9503534527     0.5816876156
C     -0.3643372948     1.9889872541     0.5563969142
C      0.3006147106     0.8204248608     0.6617341237
C     -2.5172685615     0.7746654770     0.7290309598
H     -2.3012562371     2.8832814101     0.4858802182
H      0.1627675264     2.9217904843     0.4580688132
H     -3.5957464131     0.8132739971     0.7439249429
N      1.7664293896     0.7951904514     0.7020040292
O      2.3364599636     0.7673966751    -0.3512579726
O      2.2183691021     0.7934158765     1.8170004232
C     -1.8531804439    -0.3925712771     0.8407398866
H     -2.3877029161    -1.3212091007     0.9499147984
C     -0.3844866503    -0.4743634099     0.7827854015
H      0.0120831060    -1.0171673009     1.6402861818
Br     0.0191473013    -1.5189920641    -0.8084683113
15
attempt 3 | |g_proj| = 6.095e-04 | E = -3010.3224541515 Ha
C     -1.7626784013     1.9450732837     0.5692474005
C     -0.3632564058     1.9777194029     0.5390373249
C      0.3041562400     0.8122663799     0.6618709108
C     -2.5129760618     0.7753116708     0.7421371377
H     -2.2945803675     2.8777441246     0.4616297889
H      0.1690339799     2.9070675010     0.4331451637
H     -3.5916290131     0.8170013718     0.7712413441
N      1.7682060920     0.8055070762     0.7293292905
O      2.3638225300     0.7308312268    -0.3070244659
O      2.1938643911     0.8765812456     1.8528785908
C     -1.8498193610    -0.3938887760     0.8599732058
H     -2.3862387632    -1.3205147886     0.9832858541
C     -0.3801612324    -0.4849802140     0.7737990030
H      0.0367018677    -1.0686861567     1.5923546984
Br    -0.0479464306    -1.4725565569    -0.8731772181
