15
attempt 1 | |g_proj| = 2.192e-04 | E = -3010.3561621214 Ha
C     -0.4742765348     1.2456481317     0.4683542970
C      0.8807126074     1.2548056811     0.6163866566
C      1.5301391918     0.0239737723     0.7196908291
H     -1.0343489725     2.1690110410     0.3853599296
H      1.4572609004     2.1681596147     0.6466015251
N      3.0207860579     0.0407713622     0.9018193745
O      3.5757731114    -1.0190838533     0.7897079890
O      3.5069521495     1.1115569901     1.1486858624
C     -0.4459372148    -1.2470936082     0.5272387150
H     -0.9854185742    -2.1851833764     0.4882444661
C      0.9093924304    -1.2232300315     0.6607984337
H      1.5076313372    -2.1221735724     0.7070349182
C     -1.2266944717    -0.0089546986     0.5337051816
H     -1.6082006194     0.0256571671     1.5692555862
Br    -2.8478521161    -0.0863441418    -0.4974441046
