15
attempt 1 | |g_proj| = 1.256e-03 | E = -3010.3345732013 Ha
C     -0.4675967608     1.2501366299     0.4366398839
C      0.8818658947     1.2441503292     0.6182150613
C      1.5178639552     0.0129757135     0.7387264259
H     -1.0149439650     2.1782697974     0.3225975263
H      1.4611593979     2.1526906925     0.6360379488
N      3.0062132963     0.0309111473     0.8988731431
O      3.5611688776    -1.0250675278     0.7611053821
O      3.4825578186     1.0987152144     1.1712837821
C     -0.4512011531    -1.2444800125     0.5208643276
H     -0.9955756666    -2.1771345551     0.4763221507
C      0.8981899390    -1.2330879080     0.6873093367
H      1.4868350751    -2.1383253340     0.7354700410
C     -1.2241621435     0.0011234341     0.5303408009
H     -1.5215870278     0.0415273133     1.5971740829
Br    -2.8548682329    -0.0448844554    -0.4655202061
