15
attempt 1 | |g_proj| = 8.745e-04 | E = -3010.3397034466 Ha
C     -1.7849433958     1.9420117362     0.6869951752
C     -0.3648813190     1.9835556474     0.7077277070
C      0.2964147094     0.8183500106     0.7091918794
C     -2.5074248266     0.7536064791     0.7259371259
H     -2.3200355209     2.8847643822     0.6542332249
H      0.1670215431     2.9233055612     0.7412968496
H     -3.5853909602     0.7739517937     0.7427208240
N      1.7822149262     0.8283968573     0.7723473736
O      2.3056612061    -0.2544518032     0.8359425158
O      2.3050076233     1.9086445705     0.7929220926
C     -1.8266883230    -0.4293945782     0.7686130407
H     -2.3504632254    -1.3756517084     0.8159367309
C     -0.3643346959    -0.4920701390     0.6473170875
H      0.1052272039    -1.2109966271     1.3184084488
Br    -0.2108858770    -1.2695453951    -1.1298620504
