15
meta_th9_ph126 | OPTIMIZED | |g_proj|=6.361e-04 | E=-3010.3570656627 Ha
C     -0.9197424866     2.0224565998     0.7632291462
C      0.4787743699     1.9584468054     0.7273721839
C      1.1589801710     0.7325028482     0.6620107252
C      0.4962606371    -0.4415916900     0.5932401022
C     -1.6310223431     0.8645413209     0.7099357553
H     -1.4138005288     2.9817657270     0.8215384023
H      1.0757043613     2.8642738426     0.7475542329
H      1.0355469705    -1.3793002447     0.5286490435
H     -2.7143791815     0.8719407388     0.7277560497
N      2.6466988033     0.7453868482     0.6458914457
O      3.1859033742    -0.3270978827     0.6925121725
O      3.1639005252     1.8306956959     0.5960830992
C     -0.9731961382    -0.4484521477     0.6243042855
H     -1.2751533838    -1.0413835660     1.4946431534
Br    -1.7063084237    -1.4325859320    -0.8632621231
