15
para_th18_ph0 | OPTIMIZED | |g_proj|=1.528e-03 | E=-3010.3448551226 Ha
C     -0.4906647176     1.2437921696     0.6460431895
C      0.8672665587     1.2572192774     0.6895021659
C      1.5201114987     0.0242921330     0.7146168291
H     -1.0550445236     2.1673233464     0.6163344983
H      1.4439820884     2.1703535444     0.7063026940
N      3.0215919370     0.0468072212     0.7762784877
O      3.5631330048    -1.0255488285     0.7790340900
O      3.5288867497     1.1354189964     0.8051688408
C     -0.4550482412    -1.2530601966     0.6595731683
H     -0.9929449152    -2.1926658137     0.6413691270
C      0.9028367339    -1.2270499249     0.7025958773
H      1.5053616581    -2.1231750445     0.7284271637
C     -1.2469195168    -0.0158143411     0.6157453637
H     -1.9185687338    -0.0209577234     1.4852407325
Br    -2.4280603495    -0.0394143383    -0.9007926327
