15
para_th45_ph180 | OPTIMIZED | |g_proj|=1.192e-03 | E=-3010.3418914403 Ha
C     -0.4710803382     1.2477115261     0.4701950446
C      0.8785329169     1.2516130760     0.6536934058
C      1.5196208657     0.0193128885     0.7456639207
H     -1.0243289794     2.1740286490     0.3820318982
H      1.4553841415     2.1637426931     0.6898418294
N      3.0140198617     0.0348306859     0.8875749919
O      3.5403836392    -1.0407327376     0.9777096465
O      3.5256248844     1.1209747709     0.9111570952
C     -0.4497647921    -1.2484786668     0.4941831792
H     -0.9879878634    -2.1855655187     0.4281587291
C      0.9002286149    -1.2257824170     0.6748225864
H      1.4912461144    -2.1280470615     0.7288786281
C     -1.2256097140    -0.0064452736     0.5233948348
H     -1.5461876913    -0.0019177639     1.5818132226
Br    -2.8541623583    -0.0277243715    -0.4836793311
