15
ortho_th72_ph252 | OPTIMIZED | |g_proj|=1.815e-03 | E=-3010.3270217787 Ha
C     -1.7712482951     1.9541650133     0.6151737073
C     -0.3643617580     1.9813205018     0.6189161635
C      0.3063171735     0.8133160361     0.6497321122
C     -2.5171567805     0.7749720582     0.6992999830
H     -2.3018862606     2.8955672837     0.5604812634
H      0.1638068777     2.9180342115     0.6018016080
H     -3.5959863749     0.8127205411     0.7041299230
N      1.7774613505     0.8224316625     0.7042334504
O      2.3567899752     0.4127837089    -0.2627989314
O      2.2295286035     1.2327355992     1.7407495438
C     -1.8440575294    -0.3939285136     0.7990601729
H     -2.3745314906    -1.3238778543     0.9102900327
C     -0.3766964867    -0.4873583659     0.7351654258
H      0.0241931971    -1.0602151357     1.5716376019
Br    -0.0656731300    -1.5681899651    -0.8581440369
