15
ortho_th90_ph0 | OPTIMIZED | |g_proj|=1.190e-03 | E=-3010.3278972280 Ha
C     -1.7893744315     1.9425148050     0.7197271379
C     -0.3652237052     1.9888954283     0.7087332384
C      0.2843268266     0.8240767835     0.6937200393
C     -2.5008470559     0.7519222084     0.7577645972
H     -2.3250861741     2.8839301588     0.7132223564
H      0.1576831561     2.9322262004     0.7267478426
H     -3.5739718583     0.7666242154     0.7918614070
N      1.7620940644     0.8206635654     0.7721374232
O      2.2546733465    -0.2416875247     1.0528086319
O      2.3006275081     1.8728442232     0.5737038591
C     -1.8214241493    -0.4337523430     0.7398491480
H     -2.3405291277    -1.3827462862     0.7535992326
C     -0.3648345704    -0.4882154951     0.6378860666
H      0.0900219229    -1.2123063936     1.3107000804
Br    -0.1216366056    -1.2405128516    -1.1627331290
