15
attempt 1 | |g_proj| = 6.035e-03 | E = -3010.3365931555 Ha
C     -1.7987346443     1.9471427796     0.7492621479
C     -0.3810323069     1.9886621451     0.7082780030
C      0.2763368641     0.8189406691     0.6994441508
C     -2.5184609956     0.7527737709     0.7841048005
H     -2.3395555526     2.8873175428     0.7742545448
H      0.1485673261     2.9269214906     0.7116399446
H     -3.5946147309     0.7780706270     0.8406142560
N      1.7572780609     0.7957942909     0.7631889576
O      2.2510726211    -0.2262686722     1.1679688447
O      2.3079829376     1.7955409674     0.4004358524
C     -1.8370590308    -0.4240112306     0.7109906623
H     -2.3582210599    -1.3674829791     0.6854428155
C     -0.3775233360    -0.4868743544     0.6114117105
H      0.0449596517    -1.1955422622     1.3262457880
Br     0.0655033149    -1.2065080584    -1.1435545144
15
attempt 2 | |g_proj| = 4.477e-03 | E = -3010.3366647068 Ha
C     -1.7979491151     1.9470929686     0.7492027223
C     -0.3800525015     1.9873546445     0.7106476327
C      0.2778905703     0.8189942940     0.6985637797
C     -2.5182610443     0.7531877664     0.7854786803
H     -2.3390119202     2.8873141130     0.7727466963
H      0.1487300355     2.9259091944     0.7114452615
H     -3.5943301642     0.7775337976     0.8408766237
N      1.7582659126     0.7968694148     0.7647528241
O      2.2482620170    -0.2247039735     1.1738496274
O      2.3085884813     1.7948294006     0.3928321543
C     -1.8386596523    -0.4247810375     0.7076457794
H     -2.3600860101    -1.3698767706     0.6870026760
C     -0.3794361423    -0.4842484439     0.6189002710
H      0.0452339238    -1.1989432929     1.3242239542
Br     0.0673147250    -1.2020553444    -1.1484407140
15
attempt 3 | |g_proj| = 3.728e-03 | E = -3010.3366676519 Ha
C     -1.7979189195     1.9469915226     0.7493455608
C     -0.3801630094     1.9875961355     0.7106287377
C      0.2777553130     0.8190056790     0.6991203089
C     -2.5183374454     0.7531000141     0.7852915024
H     -2.3388933211     2.8872659002     0.7725591654
H      0.1488016981     2.9258655956     0.7114352199
H     -3.5943523573     0.7775878431     0.8409057618
N      1.7581101207     0.7972907220     0.7643243287
O      2.2483845124    -0.2244155823     1.1747840103
O      2.3086338254     1.7940518653     0.3921926275
C     -1.8387377307    -0.4248521931     0.7080427916
H     -2.3600979319    -1.3698337067     0.6870393731
C     -0.3792387809    -0.4847375011     0.6180023927
H      0.0452798901    -1.1994310267     1.3241772346
Br     0.0672732482    -1.2010085316    -1.1481210419
15
attempt 4 | |g_proj| = 3.728e-03 | E = -3010.3366676617 Ha
C     -1.7979189203     1.9469915235     0.7493455612
C     -0.3801630096     1.9875961364     0.7106287380
C      0.2777553131     0.8190056794     0.6991203092
C     -2.5183374466     0.7531000145     0.7852915028
H     -2.3388933222     2.8872659016     0.7725591658
H      0.1488016982     2.9258655970     0.7114352202
H     -3.5943523590     0.7775878435     0.8409057622
N      1.7581101215     0.7972907224     0.7643243291
O      2.2483845135    -0.2244155824     1.1747840109
O      2.3086338265     1.7940518661     0.3921926277
C     -1.8387377316    -0.4248521933     0.7080427919
H     -2.3600979330    -1.3698337073     0.6870393734
C     -0.3792387811    -0.4847375013     0.6180023930
H      0.0452798901    -1.1994310273     1.3241772352
Br     0.0672732482    -1.2010085322    -1.1481210424
15
attempt 5 | |g_proj| = 3.728e-03 | E = -3010.3366676793 Ha
C     -1.7979189211     1.9469915244     0.7493455616
C     -0.3801630098     1.9875961373     0.7106287383
C      0.2777553132     0.8190056798     0.6991203095
C     -2.5183374478     0.7531000149     0.7852915032
H     -2.3388933233     2.8872659030     0.7725591662
H      0.1488016983     2.9258655984     0.7114352205
H     -3.5943523607     0.7775878439     0.8409057626
N      1.7581101223     0.7972907228     0.7643243295
O      2.2483845146    -0.2244155825     1.1747840115
O      2.3086338276     1.7940518669     0.3921926279
C     -1.8387377325    -0.4248521935     0.7080427922
H     -2.3600979341    -1.3698337079     0.6870393737
C     -0.3792387813    -0.4847375015     0.6180023933
H      0.0452798901    -1.1994310279     1.3241772358
Br     0.0672732482    -1.2010085328    -1.1481210429
15
attempt 6 | |g_proj| = 3.728e-03 | E = -3010.3366676596 Ha
C     -1.7979189219     1.9469915253     0.7493455620
C     -0.3801630100     1.9875961382     0.7106287386
C      0.2777553133     0.8190056802     0.6991203098
C     -2.5183374490     0.7531000153     0.7852915036
H     -2.3388933244     2.8872659044     0.7725591666
H      0.1488016984     2.9258655998     0.7114352208
H     -3.5943523624     0.7775878443     0.8409057630
N      1.7581101231     0.7972907232     0.7643243299
O      2.2483845157    -0.2244155826     1.1747840121
O      2.3086338287     1.7940518677     0.3921926281
C     -1.8387377334    -0.4248521937     0.7080427925
H     -2.3600979352    -1.3698337085     0.6870393740
C     -0.3792387815    -0.4847375017     0.6180023936
H      0.0452798901    -1.1994310285     1.3241772364
Br     0.0672732482    -1.2010085334    -1.1481210434
15
attempt 1 | |g_proj| = 6.036e-03 | E = -3010.3365927825 Ha
C     -1.7987328003     1.9471447379     0.7492653918
C     -0.3810325924     1.9886680475     0.7082783771
C      0.2763370350     0.8189468477     0.6994367112
C     -2.5184584128     0.7527731856     0.7841045321
H     -2.3395530001     2.8873202496     0.7742570578
H      0.1485691493     2.9269260893     0.7116402385
H     -3.5946116049     0.7780694179     0.8406137333
N      1.7572745669     0.7958008747     0.7631835038
O      2.2510594518    -0.2262744312     1.1679454821
O      2.3079881061     1.7955513973     0.4004601751
C     -1.8370598391    -0.4240123757     0.7109876221
H     -2.3582187021    -1.3674874109     0.6854371626
C     -0.3775231152    -0.4868734581     0.6114110834
H      0.0449620221    -1.1955419789     1.3262490780
Br     0.0654988548    -1.2065344662    -1.1435421849
15
attempt 2 | |g_proj| = 4.440e-03 | E = -3010.3366647560 Ha
C     -1.7979562458     1.9470957280     0.7492035529
C     -0.3800580935     1.9873651034     0.7106263688
C      0.2778752605     0.8189931529     0.6985588371
C     -2.5182604911     0.7531861366     0.7854685187
H     -2.3390134661     2.8873180257     0.7727662640
H      0.1487316541     2.9259210724     0.7114474534
H     -3.5943313707     0.7775356303     0.8408745937
N      1.7582571395     0.7968669434     0.7647392521
O      2.2482781042    -0.2247267800     1.1737747441
O      2.3085799142     1.7948502746     0.3929214228
C     -1.8386438447    -0.4247755229     0.7076680294
H     -2.3600724627    -1.3698572683     0.6869861467
C     -0.3794214145    -0.4842659850     0.6188477593
H      0.0452313943    -1.1989038640     1.3242430168
Br     0.0673030374    -1.2021259160    -1.1483979913
15
attempt 3 | |g_proj| = 3.710e-03 | E = -3010.3366678727 Ha
C     -1.7979239218     1.9469955753     0.7493450235
C     -0.3801668173     1.9876021658     0.7106107630
C      0.2777442347     0.8190066528     0.6991089385
C     -2.5183363764     0.7530991136     0.7852847810
H     -2.3388947158     2.8872703645     0.7725785389
H      0.1488025294     2.9258754108     0.7114379017
H     -3.5943528526     0.7775880461     0.8409039499
N      1.7581032102     0.7972808333     0.7643179551
O      2.2483956800    -0.2244362306     1.1747072817
O      2.3086267996     1.7940814698     0.3922769210
C     -1.8387254102    -0.4248464762     0.7080567665
H     -2.3600868033    -1.3698174588     0.6870242656
C     -0.3792291754    -0.4847470445     0.6179652742
H      0.0452781898    -1.1993926894     1.3241955880
Br     0.0672645401    -1.2010829967    -1.1480859755
