15
attempt 1 | |g_proj| = 3.202e-03 | E = -3010.3451471692 Ha
C     -1.7938240697     1.9442848744     0.7404783653
C     -0.3784684216     1.9888067786     0.7108654119
C      0.2853842305     0.8205925948     0.6937553384
C     -2.5226265613     0.7533286571     0.7698060166
H     -2.3316174252     2.8855862324     0.7629044879
H      0.1577423520     2.9275309700     0.7245524292
H     -3.6021397772     0.7770343718     0.8210979572
N      1.7725674704     0.8139609128     0.7456806785
O      2.2776437487    -0.2466013148     1.0131841085
O      2.3184182858     1.8624082636     0.5342042995
C     -1.8468709378    -0.4288284046     0.7124961253
H     -2.3760309584    -1.3734452915     0.6866020632
C     -0.3798938296    -0.4871351989     0.6117626210
H      0.0344072825    -1.1703464133     1.3572179091
Br     0.0318076989    -1.2827002688    -1.0948798111
