15
attempt 1 | |g_proj| = 5.711e-04 | E = -3010.3618927722 Ha
C     -0.9165704911     2.0301571417     0.7464277353
C      0.4818391376     1.9618888676     0.7781158106
C      1.1578944807     0.7415357324     0.6456217568
C      0.4930740800    -0.4260529882     0.4890874324
C     -1.6320618577     0.8797889351     0.6020868093
H     -1.4102402146     2.9887279901     0.8253580830
H      1.0785358421     2.8593988327     0.9026206342
H      1.0319636867    -1.3601723966     0.3786288691
H     -2.7152311739     0.8923835165     0.5767721022
N      2.6468302344     0.7419556734     0.6614428940
O      3.1777052549    -0.3248865146     0.5080347722
O      3.1724284005     1.8112114315     0.8282449156
C     -0.9713539271    -0.4311698853     0.5596569411
H     -1.1710361296    -0.8441384606     1.5609137266
Br    -1.8156105845    -1.7190288705    -0.5915547677
