15
para_th63_ph216 | OPTIMIZED | |g_proj|=2.464e-04 | E=-3010.3296142093 Ha
C     -0.4625742631     1.2493380854     0.4297295607
C      0.8885464821     1.2434028275     0.5876921487
C      1.5244656939     0.0134866096     0.7245642605
H     -1.0100979299     2.1754274587     0.3030058053
H      1.4680581966     2.1502291831     0.5884232340
N      3.0035602795     0.0256155283     0.8821167468
O      3.5881239345    -0.9249364151     0.4385597429
O      3.4418477434     0.9800226249     1.4638126691
C     -0.4495485295    -1.2382266913     0.5869495315
H     -0.9951143347    -2.1686858483     0.5783893236
C      0.8985828978    -1.2333764965     0.7144279621
H      1.4878418802    -2.1372975243     0.7665300373
C     -1.2260831443     0.0065028919     0.5572075006
H     -1.6032773303     0.0863987886     1.5939799400
Br    -2.7884122601    -0.0803805433    -0.5499487629
