15
attempt 1 | |g_proj| = 5.624e-03 | E = -3010.3253069383 Ha
C     -1.7877947663     1.9388471785     0.8613863955
C     -0.3864896550     1.9887759525     0.8600481319
C      0.2922147556     0.8276429338     0.7338487566
C     -2.5148038685     0.7422619296     0.7559808952
H     -2.3393832269     2.8674135044     0.9436105889
H      0.1341893357     2.9262704274     0.9432462117
H     -3.5938084599     0.7682316110     0.7659321121
N      1.7529595727     0.7890238851     0.7371836837
O      2.2485178247     0.4537485365     1.7796947884
O      2.2788089558     1.0523176139    -0.3058180250
C     -1.8321251386    -0.4152052907     0.6280749802
H     -2.3445541234    -1.3562625087     0.5343527267
C     -0.3641574607    -0.4736228255     0.5591823489
H      0.0603164349    -1.2134264835     1.2371579476
Br     0.0426089472    -1.1115397473    -1.2441535879
15
attempt 2 | |g_proj| = 4.099e-03 | E = -3010.3253148072 Ha
C     -1.7882368135     1.9383170881     0.8614595789
C     -0.3852201515     1.9883219732     0.8600368780
C      0.2914808535     0.8275587710     0.7334189296
C     -2.5151660081     0.7423385078     0.7560003737
H     -2.3390388798     2.8669670538     0.9436726123
H      0.1340055628     2.9260210779     0.9434764082
H     -3.5938183584     0.7680652051     0.7660013477
N      1.7535233670     0.7893338871     0.7369949626
O      2.2484846494     0.4545584248     1.7803709077
O      2.2799924358     1.0521975520    -0.3062942790
C     -1.8318389514    -0.4154949379     0.6277998108
H     -2.3452220204    -1.3562024957     0.5344748805
C     -0.3645142172    -0.4731588895     0.5589128602
H      0.0599352164    -1.2132206484     1.2376686751
Br     0.0421324388    -1.1111258478    -1.2442659873
