15
para_th36_ph306 | OPTIMIZED | |g_proj|=2.150e-03 | E=-3010.3394876633 Ha
C     -0.4606177228     1.2500313044     0.4740155004
C      0.8913955019     1.2593181014     0.5901146877
C      1.5316532281     0.0220390581     0.7093377224
H     -1.0116422144     2.1721980508     0.3609804087
H      1.4735203386     2.1693688386     0.5986392321
N      3.0129091175     0.0250895186     0.8760729471
O      3.5825465538    -0.9454407106     0.4556641015
O      3.4755285454     0.9993352463     1.4052275066
C     -0.4573737760    -1.2363735529     0.6189951596
H     -1.0040843297    -2.1711061081     0.6170735329
C      0.8996650922    -1.2190087537     0.6942810792
H      1.4900034630    -2.1199312237     0.7428173344
C     -1.2315567094     0.0049482705     0.5657446151
H     -1.6920108550     0.0870102822     1.5697587836
Br    -2.7340169016    -0.1499578428    -0.6132828924
