15
attempt 1 | |g_proj| = 3.840e-04 | E = -3010.3210083451 Ha
C     -0.9074711918     1.9803949421     0.8855989936
C      0.4728434653     1.9136055242     0.7372273388
C      1.1585360565     0.6893131529     0.6925012353
C      0.4897127449    -0.4713962994     0.6847356082
C     -1.6323327021     0.8281218690     0.8665634588
H     -1.3995801432     2.9314288139     0.9798258644
H      1.0542060691     2.8221377515     0.6732369345
H      1.0112556189    -1.4144246819     0.6419408208
H     -2.7134966345     0.8421219078     0.9370926330
N      2.6288397005     0.7249181028     0.6100842542
O      3.2300448687     0.3235782135     1.5700449483
O      3.0720851324     1.1685673886    -0.4176132361
C     -0.9818558265    -0.4675948457     0.6398858837
H     -1.4276617359    -1.2720956310     1.2152045284
Br    -1.4469587039    -0.7970772715    -1.2448716183
