15
attempt 1 | |g_proj| = 1.541e-03 | E = -3010.3438799556 Ha
C     -0.4808341114     1.2252820778     0.7062316926
C      0.8738919944     1.2456878765     0.7219410849
C      1.5337765487     0.0146907226     0.7157306425
H     -1.0472385194     2.1439782334     0.7404393054
H      1.4437180809     2.1609134314     0.7393287082
N      3.0129416492     0.0438831313     0.7842014441
O      3.5160612181    -0.7837574594     1.4947088021
O      3.5411711201     0.8966740628     0.1234143962
C     -0.4440143986    -1.2555029283     0.5660480170
H     -0.9761724848    -2.1913716965     0.4858142588
C      0.9089085625    -1.2366174685     0.6521259550
H      1.5089931728    -2.1329404137     0.6631392966
C     -1.2410238444    -0.0254173369     0.6289300977
H     -1.9023646801    -0.1138733813     1.4996512144
Br    -2.4818950542     0.1558916266    -0.8562652931
