15
para_th72_ph18 | OPTIMIZED | |g_proj|=6.781e-04 | E=-3010.3166634185 Ha
C     -0.5159745510     1.2377252708     0.8634126161
C      0.8411936668     1.2423930661     0.8256769388
C      1.4866548495     0.0162168623     0.7421649086
H     -1.0750739903     2.1640098249     0.9145394772
H      1.4079830652     2.1578222139     0.8337540207
N      2.9673799654     0.0455813897     0.6014373311
O      3.5505619420    -0.9269374786     0.9957445232
O      3.4060456175     1.0323606041     0.0756602353
C     -0.4718590818    -1.2596772740     0.7726534353
H     -1.0038387572    -2.1986835990     0.7486376580
C      0.8808432061    -1.2381679388     0.7725169363
H      1.4780491512    -2.1371795640     0.7771409762
C     -1.2591274500    -0.0180858571     0.6927154324
H     -2.1831090750    -0.0554633158     1.2605008739
Br    -1.7438093234     0.0856062729    -1.2111157637
