15
ortho_th45_ph234 | OPTIMIZED | |g_proj|=4.169e-03 | E=-3010.3416106665 Ha
C     -1.7880879833     1.9539615663     0.6917541321
C     -0.3662548023     1.9835252786     0.7123387917
C      0.3039108699     0.8226493822     0.6727081189
C     -2.5112817525     0.7728896402     0.6681705073
H     -2.3207747155     2.8970685873     0.6995647635
H      0.1689091165     2.9171789543     0.7667360485
H     -3.5902856734     0.7908872014     0.6588481555
N      1.7862397991     0.8408767749     0.7318653609
O      2.3437685700    -0.1770289652     0.4107283796
O      2.2837919995     1.8646364595     1.1113502813
C     -1.8243139336    -0.4082388232     0.7321407397
H     -2.3514456412    -1.3449275375     0.8197438938
C     -0.3622547311    -0.4822598534     0.6868896005
H      0.0830639441    -1.1530419393     1.4171882896
Br    -0.2084859910    -1.4936999483    -0.9902990482
