15
attempt 1 | |g_proj| = 8.396e-03 | E = -3010.3408978311 Ha
C     -1.7960122785     1.9450851084     0.7484595211
C     -0.3803524193     1.9893924656     0.7129863379
C      0.2813094440     0.8200419736     0.6978770672
C     -2.5234204572     0.7525992181     0.7798741324
H     -2.3343366350     2.8862950904     0.7715242628
H      0.1550854672     2.9277182934     0.7199456801
H     -3.6026086963     0.7778970721     0.8342614173
N      1.7665110954     0.8062100037     0.7503680140
O      2.2615573851    -0.2355811834     1.1002539079
O      2.3200594462     1.8264260048     0.4461663977
C     -1.8467112666    -0.4283570519     0.7092311542
H     -2.3740286674    -1.3727329718     0.6764014378
C     -0.3814125325    -0.4867611733     0.6111250178
H      0.0313042898    -1.1839264719     1.3430499444
Br     0.0695549358    -1.2398296417    -1.1117963195
15
attempt 2 | |g_proj| = 8.396e-03 | E = -3010.3408978344 Ha
C     -1.7960122793     1.9450851093     0.7484595215
C     -0.3803524195     1.9893924665     0.7129863382
C      0.2813094441     0.8200419740     0.6978770675
C     -2.5234204584     0.7525992185     0.7798741328
H     -2.3343366361     2.8862950918     0.7715242632
H      0.1550854673     2.9277182948     0.7199456804
H     -3.6026086980     0.7778970725     0.8342614177
N      1.7665110962     0.8062100041     0.7503680144
O      2.2615573862    -0.2355811835     1.1002539084
O      2.3200594473     1.8264260057     0.4461663979
C     -1.8467112675    -0.4283570521     0.7092311545
H     -2.3740286685    -1.3727329724     0.6764014381
C     -0.3814125327    -0.4867611735     0.6111250181
H      0.0313042898    -1.1839264725     1.3430499450
Br     0.0695549358    -1.2398296423    -1.1117963200
15
attempt 3 | |g_proj| = 8.396e-03 | E = -3010.3408977950 Ha
C     -1.7960122801     1.9450851102     0.7484595219
C     -0.3803524197     1.9893924674     0.7129863385
C      0.2813094442     0.8200419744     0.6978770678
C     -2.5234204596     0.7525992189     0.7798741332
H     -2.3343366372     2.8862950932     0.7715242636
H      0.1550854674     2.9277182962     0.7199456807
H     -3.6026086997     0.7778970729     0.8342614181
N      1.7665110970     0.8062100045     0.7503680148
O      2.2615573873    -0.2355811836     1.1002539089
O      2.3200594484     1.8264260066     0.4461663981
C     -1.8467112684    -0.4283570523     0.7092311548
H     -2.3740286696    -1.3727329730     0.6764014384
C     -0.3814125329    -0.4867611737     0.6111250184
H      0.0313042898    -1.1839264731     1.3430499456
Br     0.0695549358    -1.2398296429    -1.1117963205
15
attempt 4 | |g_proj| = 8.396e-03 | E = -3010.3408978232 Ha
C     -1.7960122809     1.9450851111     0.7484595223
C     -0.3803524199     1.9893924683     0.7129863388
C      0.2813094443     0.8200419748     0.6978770681
C     -2.5234204608     0.7525992193     0.7798741336
H     -2.3343366383     2.8862950946     0.7715242640
H      0.1550854675     2.9277182976     0.7199456810
H     -3.6026087014     0.7778970733     0.8342614185
N      1.7665110978     0.8062100049     0.7503680152
O      2.2615573884    -0.2355811837     1.1002539094
O      2.3200594495     1.8264260075     0.4461663983
C     -1.8467112693    -0.4283570525     0.7092311551
H     -2.3740286707    -1.3727329736     0.6764014387
C     -0.3814125331    -0.4867611739     0.6111250187
H      0.0313042898    -1.1839264737     1.3430499462
Br     0.0695549358    -1.2398296435    -1.1117963210
15
attempt 5 | |g_proj| = 8.396e-03 | E = -3010.3408978135 Ha
C     -1.7960122817     1.9450851120     0.7484595227
C     -0.3803524201     1.9893924692     0.7129863391
C      0.2813094444     0.8200419752     0.6978770684
C     -2.5234204620     0.7525992197     0.7798741340
H     -2.3343366394     2.8862950960     0.7715242644
H      0.1550854676     2.9277182990     0.7199456813
H     -3.6026087031     0.7778970737     0.8342614189
N      1.7665110986     0.8062100053     0.7503680156
O      2.2615573895    -0.2355811838     1.1002539099
O      2.3200594506     1.8264260084     0.4461663985
C     -1.8467112702    -0.4283570527     0.7092311554
H     -2.3740286718    -1.3727329742     0.6764014390
C     -0.3814125333    -0.4867611741     0.6111250190
H      0.0313042898    -1.1839264743     1.3430499468
Br     0.0695549358    -1.2398296441    -1.1117963215
15
attempt 1 | |g_proj| = 8.396e-03 | E = -3010.3408978282 Ha
C     -1.7960122785     1.9450851084     0.7484595211
C     -0.3803524193     1.9893924656     0.7129863379
C      0.2813094440     0.8200419736     0.6978770672
C     -2.5234204572     0.7525992181     0.7798741324
H     -2.3343366350     2.8862950904     0.7715242628
H      0.1550854672     2.9277182934     0.7199456801
H     -3.6026086963     0.7778970721     0.8342614173
N      1.7665110954     0.8062100037     0.7503680140
O      2.2615573851    -0.2355811834     1.1002539079
O      2.3200594462     1.8264260048     0.4461663977
C     -1.8467112666    -0.4283570519     0.7092311542
H     -2.3740286674    -1.3727329718     0.6764014378
C     -0.3814125325    -0.4867611733     0.6111250178
H      0.0313042898    -1.1839264719     1.3430499444
Br     0.0695549358    -1.2398296417    -1.1117963195
