15
attempt 1 | |g_proj| = 1.393e-03 | E = -3010.3348852660 Ha
C     -0.9055226616     2.0358719384     0.6985017506
C      0.4933391036     1.9720650152     0.7156901956
C      1.1557447821     0.7358792079     0.6616548283
C      0.4788208499    -0.4264811540     0.6265579211
C     -1.6222828835     0.8825263213     0.6588364743
H     -1.3871402103     2.9974271839     0.7161629830
H      1.0920291869     2.8768531444     0.7642427356
H      1.0037895665    -1.3672885137     0.5705360262
H     -2.7008774603     0.8996615263     0.6461643950
N      2.6314062467     0.7261320148     0.6356561592
O      3.1249711929    -0.2385628912     0.1232180334
O      3.1804528558     1.6820322077     1.1190049550
C     -0.9841849711    -0.4372701498     0.6765389111
H     -1.3048133807    -0.9437099004     1.5981836543
Br    -1.6475654726    -1.5935369165    -0.7394912811
