15
attempt 1 | |g_proj| = 4.336e-04 | E = -3010.3184445349 Ha
C     -0.4931158195     1.2504485815     0.7736235146
C      0.8619820071     1.2515119357     0.7849364264
C      1.4987502161     0.0163037743     0.7456028594
H     -1.0448956610     2.1805301608     0.7819782611
H      1.4333721887     2.1655127628     0.7819389168
N      2.9890306732     0.0285337006     0.6515586483
O      3.5314524096    -1.0181122028     0.8777103689
O      3.4759739589     1.0835398952     0.3500584565
C     -0.4732272136    -1.2501478916     0.7351277689
H     -1.0091305557    -2.1894984060     0.7104181091
C      0.8818124357    -1.2290451154     0.7584166687
H      1.4699738116    -2.1322067105     0.7548911093
C     -1.2512251287    -0.0050833722     0.6949463037
H     -2.0929891355    -0.0237040280     1.3781272893
Br    -2.0118449148     0.0189373937    -1.1138950558
