15
meta_th54_ph36 | OPTIMIZED | |g_proj|=1.516e-03 | E=-3010.3277679007 Ha
C     -0.9387501282     2.0011026000     0.8143394514
C      0.4483280461     1.9274528844     0.6515582690
C      1.1356718607     0.7118445913     0.7048811283
C      0.4882243038    -0.4666169313     0.7965829478
C     -1.6390774270     0.8418652834     0.8872838982
H     -1.4313758922     2.9615822120     0.8577769612
H      1.0298023933     2.8262343276     0.4984699569
H      1.0336099962    -1.4028646441     0.8172070177
H     -2.7166936574     0.8529726660     0.9742286252
N      2.6141877680     0.7142026355     0.6051047487
O      3.1760916763    -0.2726241404     0.9974965522
O      3.0929924055     1.6937672875     0.1001517125
C     -0.9819073025    -0.4687349658     0.6980140923
H     -1.4464428086    -1.2698445935     1.2681685235
Br    -1.2564945175    -0.8487402852    -1.1998062466
