15
para_th45_ph270 | OPTIMIZED | |g_proj|=1.681e-03 | E=-3010.3434899003 Ha
C     -0.4603258849     1.2560557937     0.5078883273
C      0.8922416961     1.2599989224     0.5977745881
C      1.5348051399     0.0209938478     0.7103658777
H     -1.0103283036     2.1784064657     0.4012872891
H      1.4796682136     2.1643147838     0.5863311994
N      3.0109521928     0.0163159956     0.8136613421
O      3.5718089734    -0.8366382894     0.1809706026
O      3.4790513597     0.8632113587     1.5256021288
C     -0.4594508868    -1.2191680591     0.7127475826
H     -1.0126955088    -2.1442480270     0.7642855396
C      0.8950321758    -1.2194767057     0.7388255803
H      1.4822868036    -2.1229237000     0.7828236821
C     -1.2378958561     0.0180193725     0.6185948227
H     -1.8549447935     0.1185192339     1.5221748064
Br    -2.5442860007    -0.2058605138    -0.7978936645
