15
ortho_th54_ph54 | OPTIMIZED | |g_proj|=6.057e-04 | E=-3010.3337730268 Ha
C     -1.7949370490     1.9356618180     0.7549830458
C     -0.3837394527     1.9874433814     0.7282619465
C      0.2821239700     0.8194593296     0.7343728997
C     -2.5170154923     0.7367450771     0.8015142000
H     -2.3427015407     2.8713793892     0.7537906983
H      0.1397456482     2.9283363919     0.7216159099
H     -3.5938648190     0.7612903311     0.8665018267
N      1.7551882655     0.7773866323     0.7943707943
O      2.2057043174    -0.0737743108     1.5194427088
O      2.3392803289     1.5684363950     0.1085814822
C     -1.8353162526    -0.4341532611     0.7224203424
H     -2.3533209250    -1.3801202278     0.7003168726
C     -0.3736354665    -0.4818375518     0.5966889103
H      0.0788744971    -1.2430910392     1.2324047078
Br     0.0401130778    -0.9886856144    -1.2455383677
