15
attempt 1 | |g_proj| = 2.565e-03 | E = -3010.3343307869 Ha
C     -0.4532964753     1.2591431721     0.5423872339
C      0.8945689813     1.2606645106     0.5880342859
C      1.5311685802     0.0151565338     0.7146058041
H     -0.9960349667     2.1820208346     0.4347806587
H      1.4878577775     2.1592179543     0.5330412560
N      2.9955402110     0.0087662677     0.7615598757
O      3.5304067093    -0.5881355796    -0.1310578166
O      3.4742982473     0.6071150846     1.6855479161
C     -0.4740781122    -1.2097148460     0.8114666170
H     -1.0347185251    -2.1292222448     0.9020103189
C      0.8805375782    -1.2158559568     0.8005897159
H      1.4520550532    -2.1246273268     0.8652903604
C     -1.2453161503     0.0275463198     0.6544936543
H     -1.9762477047     0.1354211974     1.4644849261
Br    -2.3008218726    -0.2399754412    -0.9617950878
15
attempt 2 | |g_proj| = 1.608e-03 | E = -3010.3343647251 Ha
C     -0.4557820443     1.2621004132     0.5496067907
C      0.8934917547     1.2613991396     0.5926425460
C      1.5325783072     0.0151869287     0.7144872627
H     -1.0034047203     2.1834214109     0.4392935839
H      1.4869951862     2.1600552429     0.5397719692
N      3.0011306589     0.0059976751     0.7560354080
O      3.5342397546    -0.5958387853    -0.1343049764
O      3.4854660986     0.6084879479     1.6743651740
C     -0.4751634861    -1.2085705862     0.8172724511
H     -1.0360298417    -2.1282235942     0.9090909963
C      0.8802739627    -1.2152443312     0.8036766561
H      1.4554176859    -2.1221040154     0.8692330466
C     -1.2465121017     0.0284156586     0.6545269739
H     -1.9934809110     0.1302984994     1.4490757742
Br    -2.2933009687    -0.2378611241    -0.9693339332
