15
para_th63_ph288 | OPTIMIZED | |g_proj|=1.608e-03 | E=-3010.3343647251 Ha
C     -0.4557820443     1.2621004132     0.5496067907
C      0.8934917547     1.2613991396     0.5926425460
C      1.5325783072     0.0151869287     0.7144872627
H     -1.0034047203     2.1834214109     0.4392935839
H      1.4869951862     2.1600552429     0.5397719692
N      3.0011306589     0.0059976751     0.7560354080
O      3.5342397546    -0.5958387853    -0.1343049764
O      3.4854660986     0.6084879479     1.6743651740
C     -0.4751634861    -1.2085705862     0.8172724511
H     -1.0360298417    -2.1282235942     0.9090909963
C      0.8802739627    -1.2152443312     0.8036766561
H      1.4554176859    -2.1221040154     0.8692330466
C     -1.2465121017     0.0284156586     0.6545269739
H     -1.9934809110     0.1302984994     1.4490757742
Br    -2.2933009687    -0.2378611241    -0.9693339332
