15
attempt 1 | |g_proj| = 4.871e-03 | E = -3010.3163668482 Ha
C     -0.9068770759     2.0313227521     0.6249410744
C      0.4836607253     1.9592298221     0.6801130077
C      1.1584753246     0.7408646852     0.5994223683
C      0.4897746086    -0.4206188174     0.4758087104
C     -1.6313476454     0.8824587652     0.5672326342
H     -1.4061247370     2.9847699321     0.6421184919
H      1.0640798829     2.8651237206     0.7666376208
H      1.0172546269    -1.3568288219     0.3709040207
H     -2.7139760670     0.8935401629     0.5774816599
N      2.6295955851     0.7108354448     0.6826441086
O      3.2203906147     0.2007307924    -0.2298521622
O      3.0767430378     1.1726140814     1.6993191860
C     -0.9654476519    -0.4212363888     0.6196580619
H     -1.0466588103    -0.6334136076     1.7095884961
Br    -1.8613756887    -1.8077935455    -0.3145595913
