15
attempt 1 | |g_proj| = 4.674e-03 | E = -3010.3462961126 Ha
C     -0.9106534866     2.0337657196     0.7121017188
C      0.4804948310     1.9471402089     0.8127897403
C      1.1552865804     0.7332753729     0.6513179920
C      0.4900528540    -0.4275915735     0.4604930691
C     -1.6304869006     0.8928165662     0.5189738427
H     -1.4024134867     2.9944580244     0.7709762997
H      1.0742343815     2.8325121738     0.9980009439
H      1.0262647431    -1.3617751047     0.3451282013
H     -2.7114978571     0.9155108277     0.4525032936
N      2.6398986344     0.7278296256     0.6557979498
O      3.1729591596    -0.2678453182     0.2462830417
O      3.1625092137     1.7199185711     1.0855246726
C     -0.9739730159    -0.4233348088     0.5581152201
H     -1.1168682388    -0.6935939990     1.6173166091
Br    -1.8476406721    -1.8214872707    -0.4138648706
15
attempt 2 | |g_proj| = 2.767e-03 | E = -3010.3463120298 Ha
C     -0.9125414386     2.0328988851     0.7115864892
C      0.4802396306     1.9471417081     0.8129878802
C      1.1544013044     0.7331283418     0.6514182160
C      0.4894056026    -0.4281871426     0.4599144041
C     -1.6296902340     0.8923509960     0.5180794779
H     -1.4017651069     2.9942831875     0.7708158600
H      1.0746023785     2.8328619526     0.9983922298
H      1.0261836667    -1.3621709205     0.3442155061
H     -2.7104740199     0.9158399778     0.4521907110
N      2.6418298391     0.7286501994     0.6544742726
O      3.1721508778    -0.2685303519     0.2448169677
O      3.1620784356     1.7206103352     1.0889924795
C     -0.9735640051    -0.4225297868     0.5575255971
H     -1.1161979003    -0.6927227467     1.6180609247
Br    -1.8484922891    -1.8220256149    -0.4120132873
15
attempt 3 | |g_proj| = 2.740e-03 | E = -3010.3463136466 Ha
C     -0.9116515844     2.0330338655     0.7113296390
C      0.4796914995     1.9471878447     0.8131064456
C      1.1548129004     0.7332761956     0.6510326576
C      0.4899567967    -0.4280391404     0.4593601681
C     -1.6298737075     0.8920696432     0.5172146337
H     -1.4017239501     2.9942849960     0.7705797851
H      1.0743737353     2.8325604066     0.9987268932
H      1.0259193062    -1.3625165105     0.3431496040
H     -2.7100549795     0.9158873185     0.4516470366
N      2.6409822221     0.7288575789     0.6545153107
O      3.1720963766    -0.2671067454     0.2434434765
O      3.1621188924     1.7194296809     1.0915242014
C     -0.9737486235    -0.4232861756     0.5576916533
H     -1.1152806334    -0.6913957260     1.6180323574
Br    -1.8494515080    -1.8226442072    -0.4098961291
15
attempt 4 | |g_proj| = 2.446e-03 | E = -3010.3463155724 Ha
C     -0.9123114898     2.0328002443     0.7110136970
C      0.4801612056     1.9470320721     0.8131338026
C      1.1544606666     0.7333309410     0.6508395804
C      0.4898343219    -0.4282190073     0.4589680682
C     -1.6292770922     0.8921168545     0.5169573530
H     -1.4015914370     2.9941718452     0.7704209097
H      1.0742828214     2.8325139449     0.9989978637
H      1.0258417567    -1.3626038225     0.3425120189
H     -2.7100843903     0.9159344584     0.4512467113
N      2.6412551800     0.7290588513     0.6546637803
O      3.1719800558    -0.2666526303     0.2423658847
O      3.1618968975     1.7190311564     1.0931875743
C     -0.9734018868    -0.4229986443     0.5573369192
H     -1.1147928873    -0.6907048468     1.6184833313
Br    -1.8500869782    -1.8232123875    -0.4086697572
15
attempt 5 | |g_proj| = 2.223e-03 | E = -3010.3463161468 Ha
C     -0.9119870276     2.0328643101     0.7109624117
C      0.4798952780     1.9470283166     0.8131157275
C      1.1545613599     0.7333026753     0.6507608460
C      0.4898445910    -0.4282416055     0.4588070067
C     -1.6294987056     0.8920178933     0.5167851186
H     -1.4016023831     2.9941699951     0.7703519218
H      1.0742882866     2.8325153505     0.9991146294
H      1.0258186356    -1.3626458136     0.3422548624
H     -2.7099189826     0.9159269476     0.4510961682
N      2.6411622024     0.7290424299     0.6547061397
O      3.1719766432    -0.2664153179     0.2419508351
O      3.1618773860     1.7188801412     1.0938554577
C     -0.9733766333    -0.4230619577     0.5573450959
H     -1.1145586543    -0.6903835323     1.6185080244
Br    -1.8503152509    -1.8234007985    -0.4081565031
15
attempt 6 | |g_proj| = 2.490e-03 | E = -3010.3463161909 Ha
C     -0.9121537374     2.0326942956     0.7105862214
C      0.4800476676     1.9470473594     0.8131311187
C      1.1544710516     0.7331534424     0.6504596795
C      0.4900729923    -0.4282041104     0.4581832017
C     -1.6291246630     0.8920569729     0.5163041024
H     -1.4015233831     2.9940830590     0.7700833387
H      1.0741365850     2.8323405488     0.9995347340
H      1.0257110828    -1.3628004057     0.3412552954
H     -2.7098261703     0.9159135227     0.4504752932
N      2.6411093400     0.7293354610     0.6550025598
O      3.1719628308    -0.2655180238     0.2403179524
O      3.1615908141     1.7179770149     1.0963330209
C     -0.9734211507    -0.4231411748     0.5571896114
H     -1.1136774871    -0.6891567299     1.6187564185
Br    -1.8512090259    -1.8241821935    -0.4061548015
15
attempt 1 | |g_proj| = 4.671e-03 | E = -3010.3462960920 Ha
C     -0.9106505757     2.0337682268     0.7121018743
C      0.4804950538     1.9471479125     0.8127902751
C      1.1552820097     0.7332792062     0.6513230559
C      0.4900555277    -0.4275945933     0.4605065801
C     -1.6304741880     0.8928142502     0.5189767718
H     -1.4024079983     2.9944604522     0.7709855524
H      1.0742306593     2.8325252997     0.9979960117
H      1.0262543018    -1.3617867299     0.3451415463
H     -2.7114810928     0.9155105320     0.4525203876
N      2.6398893183     0.7278342357     0.6557906976
O      3.1729345407    -0.2678657432     0.2463162409
O      3.1625080395     1.7199356062     1.0854788623
C     -0.9739668957    -0.4233376398     0.5581194468
H     -1.1168839647    -0.6936186925     1.6173115380
Br    -1.8476179956    -1.8214733074    -0.4139011168
