15
attempt 1 | |g_proj| = 6.000e-04 | E = -3010.3533411648 Ha
C     -1.7959359422     1.9525063315     0.7507295741
C     -0.3786125822     1.9928930805     0.7122843817
C      0.2856782435     0.8253322525     0.6594831755
C     -2.5236958762     0.7622396820     0.7541879166
H     -2.3310161495     2.8950877463     0.7950040364
H      0.1594636857     2.9307378044     0.7431151461
H     -3.6034437605     0.7838964442     0.7977269072
N      1.7742056728     0.8275420201     0.7261969357
O      2.2918322219    -0.2529945558     0.8489163441
O      2.3093704853     1.9008266018     0.6609241102
C     -1.8464323261    -0.4212318073     0.6884313731
H     -2.3741966016    -1.3671281381     0.6747556825
C     -0.3811035556    -0.4825445830     0.6150245247
H      0.0202973693    -1.1369755114     1.3880998243
Br     0.0400882618    -1.4257106736    -1.0251520006
