15
para_th81_ph216 | OPTIMIZED | |g_proj|=1.153e-03 | E=-3010.3237887052 Ha
C     -0.4743519392     1.2385494099     0.8883738240
C      0.8805510692     1.2142069078     0.9383124795
C      1.5196852480    -0.0010649450     0.7096553589
H     -1.0216687406     2.1632039187     1.0255760452
H      1.4575208426     2.1024729244     1.1251126600
N      2.9964577403     0.0080127403     0.7161858198
O      3.4868687922     0.6059590151     1.6341929720
O      3.5253478766    -0.5965193597    -0.1760806433
C     -0.4554600199    -1.2232820450     0.4739075799
H     -1.0017213265    -2.1385721214     0.3149619818
C      0.8947742428    -1.2287162085     0.4777749087
H      1.4798030857    -2.1176996293     0.2898159370
C     -1.2402191752     0.0054681099     0.6720848958
H     -1.9452682125    -0.1230516666     1.4944123156
Br    -2.3364001927     0.2385534278    -0.9188464668
