15
para_th90_ph126 | OPTIMIZED | |g_proj|=3.919e-04 | E=-3010.3259762739 Ha
C     -0.4746658087     1.2191295961     0.9201629239
C      0.8716539328     1.2322119201     0.9399708498
C      1.5181689547     0.0011802780     0.7344387093
H     -1.0309200544     2.1311344234     1.0506931946
H      1.4538751346     2.1293529336     1.0887217615
N      2.9799865430     0.0299862575     0.6563194482
O      3.5473600976     0.2029631395     1.6985176288
O      3.4159053158    -0.0916197343    -0.4549888778
C     -0.4723717124    -1.2481339061     0.5913616540
H     -1.0213223440    -2.1732779662     0.4728894932
C      0.8835322084    -1.2296187528     0.5849488260
H      1.4642978212    -2.1242199819     0.4548959563
C     -1.2497836382    -0.0071433230     0.6781323350
H     -2.0936812792    -0.1036308887     1.3604509877
Br    -2.0261159065     0.1792064834    -1.1110752547
