15
attempt 1 | |g_proj| = 2.621e-04 | E = -3010.3148094262 Ha
C     -0.5128332691     1.2458370893     0.7999463104
C      0.8428379871     1.2552985270     0.7852871343
C      1.4865325471     0.0246863694     0.7412438890
H     -1.0696123708     2.1729350350     0.8051681194
H      1.4099071393     2.1718770009     0.7814052979
N      2.9772617796     0.0452078486     0.6138492772
O      3.5053055133    -1.0306021849     0.5481511260
O      3.4785614808     1.1347817447     0.5660831157
C     -0.4771817793    -1.2535792283     0.8129088780
H     -1.0070857258    -2.1964111236     0.8274493734
C      0.8784393783    -1.2231384702     0.7972767152
H      1.4714077724    -2.1229716477     0.8007285782
C     -1.2602251113    -0.0154995082     0.6998158898
H     -2.1724928921    -0.0255760468     1.2846295872
Br    -1.7849032178    -0.0353249276    -1.1985036965
