15
ortho_th81_ph234 | OPTIMIZED | |g_proj|=1.687e-03 | E=-3010.3272268058 Ha
C     -1.7791894140     1.9651263566     0.5798625571
C     -0.3722762085     1.9977756598     0.5576279763
C      0.2928427083     0.8309884187     0.6678270430
C     -2.5150026747     0.7806247149     0.7268783678
H     -2.3184595471     2.9001724797     0.4831847792
H      0.1485236354     2.9323143401     0.4578193282
H     -3.5918034250     0.8190967815     0.7424143322
N      1.7570907678     0.7895147299     0.7069101056
O      2.3101358623     0.7483502953    -0.3548759374
O      2.2202217564     0.7570955269     1.8171913335
C     -1.8392008979    -0.3844355866     0.8371110797
H     -2.3586548359    -1.3192784241     0.9480723209
C     -0.3748019503    -0.4698825253     0.7847204643
H      0.0270556263    -1.0267427930     1.6353250816
Br     0.0400176763    -1.5362432022    -0.8003408213
