15
attempt 1 | |g_proj| = 6.304e-03 | E = -3010.3311721959 Ha
C     -1.7851455956     1.9241023974     0.7352481275
C     -0.3770511883     1.9814924414     0.7268500119
C      0.2908860387     0.8148468416     0.7499711141
C     -2.5185041658     0.7343196858     0.7861555973
H     -2.3295075071     2.8578353739     0.7220535949
H      0.1528729608     2.9216736153     0.7166503128
H     -3.5975215032     0.7576580382     0.8441116948
N      1.7687060917     0.7849698221     0.7861201129
O      2.2387952006    -0.1275146492     1.4172686265
O      2.3411760881     1.6635866041     0.2034937493
C     -1.8448045285    -0.4426192621     0.7411660465
H     -2.3759426412    -1.3846276596     0.7105921573
C     -0.3753940502    -0.4875758551     0.6083618358
H      0.0729656524    -1.2310462863     1.2688971582
Br    -0.0150317377    -0.9826243765    -1.2272121712
15
attempt 2 | |g_proj| = 4.403e-03 | E = -3010.3312877628 Ha
C     -1.7886323604     1.9296912483     0.7342217537
C     -0.3792032225     1.9786052600     0.7245798201
C      0.2904795869     0.8110360006     0.7507897268
C     -2.5163742885     0.7373523721     0.7945340271
H     -2.3324577839     2.8662146005     0.7031863024
H      0.1495955723     2.9187039276     0.7170486096
H     -3.5961780883     0.7607139617     0.8330898760
N      1.7661223007     0.7829689288     0.8015812930
O      2.2397780340    -0.1113970904     1.4561171608
O      2.3342584399     1.6463924077     0.1923760587
C     -1.8367757422    -0.4387507157     0.7540956848
H     -2.3562431597    -1.3848614721     0.7279814648
C     -0.3706233795    -0.4919564908     0.6127276487
H      0.0935534769    -1.2612885606     1.2333009544
Br    -0.0508002750    -0.9589476421    -1.2459024076
15
attempt 3 | |g_proj| = 2.202e-03 | E = -3010.3313393643 Ha
C     -1.7860191820     1.9255174486     0.7298816894
C     -0.3765786818     1.9781825633     0.7279808995
C      0.2916380968     0.8115581101     0.7540647530
C     -2.5158810981     0.7341808283     0.7906879603
H     -2.3294798641     2.8614569675     0.7017093626
H      0.1520621359     2.9183628723     0.7163053229
H     -3.5952244069     0.7581918428     0.8359142044
N      1.7673716352     0.7856940576     0.8014576590
O      2.2368008860    -0.1080791318     1.4599262115
O      2.3391943905     1.6454915831     0.1907511056
C     -1.8381745774    -0.4420636324     0.7549475966
H     -2.3626357369    -1.3862664087     0.7311868102
C     -0.3726206450    -0.4896314846     0.6121411955
H      0.0923765399    -1.2561484350     1.2314260095
Br    -0.0563303854    -0.9519704410    -1.2486528021
