15
para_th63_ph342 | OPTIMIZED | |g_proj|=6.062e-04 | E=-3010.3189014933 Ha
C     -0.4881694623     1.2718852559     0.7449845519
C      0.8650954016     1.2641700949     0.7385759802
C      1.4864131411     0.0159189423     0.7379021942
H     -1.0301835276     2.2051919831     0.7075648981
H      1.4548740672     2.1682679271     0.7295924839
N      2.9718664312     0.0008922897     0.6153681267
O      3.4363464112    -1.0135139033     0.1703300756
O      3.5343348763     1.0101693526     0.9417776735
C     -0.5038888993    -1.2232533021     0.8838090725
H     -1.0549927225    -2.1529781368     0.9535302986
C      0.8536285858    -1.2155558852     0.8453516564
H      1.4311746561    -2.1239767532     0.8764034318
C     -1.2620221675     0.0197779705     0.6813952085
H     -2.1855430018     0.0593420616     1.2522396570
Br    -1.7430144359    -0.1388174167    -1.2133855627
