15
ortho_th45_ph36 | OPTIMIZED | |g_proj|=3.954e-03 | E=-3010.3405451844 Ha
C     -1.7979597753     1.9490260865     0.7590321551
C     -0.3812732479     1.9894207452     0.7127691767
C      0.2765409357     0.8202295216     0.6905916838
C     -2.5207814384     0.7551631857     0.7833234184
H     -2.3373015534     2.8897391395     0.7986273415
H      0.1511508714     2.9269795763     0.7163921153
H     -3.5976137763     0.7806342155     0.8395591764
N      1.7582101580     0.8009524553     0.7521207633
O      2.2492057059    -0.2276223086     1.1419398438
O      2.3095819354     1.8054582272     0.3973830509
C     -1.8435949436    -0.4236754376     0.6942635562
H     -2.3684682078    -1.3674986608     0.6645007691
C     -0.3825987778    -0.4839280448     0.6130068979
H      0.0250732507    -1.1843897657     1.3432095513
Br     0.1063279940    -1.2460122225    -1.1169915494
