15
attempt 1 | |g_proj| = 1.234e-03 | E = -3010.3533555208 Ha
C     -1.7930782364     1.9566380692     0.7558370340
C     -0.3755968407     1.9917886842     0.7179255975
C      0.2879115239     0.8259166053     0.6390172148
C     -2.5238098560     0.7704097086     0.7348923047
H     -2.3232517569     2.9002030832     0.8183343836
H      0.1653476964     2.9273823964     0.7610815909
H     -3.6039411181     0.7922347426     0.7717470637
N      1.7766539735     0.8400731517     0.7105396993
O      2.3089742709    -0.2391673950     0.7037932719
O      2.2989856935     1.9200959620     0.7704979141
C     -1.8479143675    -0.4154353579     0.6702744072
H     -2.3781824131    -1.3602447719     0.6592615973
C     -0.3825538844    -0.4818270335     0.6188771869
H      0.0016392859    -1.1070576629     1.4214530189
Br     0.0353150699    -1.5365333625    -0.9638042283
