15
ortho_th36_ph54 | OPTIMIZED | |g_proj|=4.144e-03 | E=-3010.3411841331 Ha
C     -1.7968268993     1.9452205818     0.7521230932
C     -0.3817533987     1.9886583171     0.7110742182
C      0.2798170909     0.8196688947     0.6974635925
C     -2.5231391551     0.7524004944     0.7844866127
H     -2.3366060148     2.8855695512     0.7814963908
H      0.1521125513     2.9265090437     0.7148963591
H     -3.6013384577     0.7782023257     0.8425414010
N      1.7631023249     0.8004717868     0.7544515414
O      2.2549284910    -0.2298416416     1.1393438166
O      2.3177729570     1.8066121323     0.4085408364
C     -1.8459705613    -0.4261708447     0.7037731114
H     -2.3722731826    -1.3697452267     0.6716076266
C     -0.3821942404    -0.4849565699     0.6092816528
H      0.0284183975    -1.1843052432     1.3406954546
Br     0.0904492047    -1.2238168611    -1.1220477287
