15
attempt 1 | |g_proj| = 2.648e-03 | E = -3010.3307033356 Ha
C     -0.4702324783     1.2256209819     0.7974014334
C      0.8765227108     1.2435351143     0.8063530863
C      1.5266071838     0.0034811616     0.7224325989
H     -1.0278227686     2.1435755118     0.8722865620
H      1.4548237516     2.1532967414     0.8552403178
N      2.9905362016     0.0337604063     0.7195984936
O      3.5080642028    -0.4529534489     1.6863715436
O      3.4804078408     0.5727430444    -0.2342399068
C     -0.4577986416    -1.2535557739     0.5794371575
H     -1.0010502756    -2.1829427266     0.4764910979
C      0.8963897435    -1.2378148137     0.6390565482
H      1.4818461107    -2.1383241775     0.5937149741
C     -1.2414491579    -0.0171338899     0.6687636287
H     -1.9836164555    -0.1065223263     1.4643613542
Br    -2.2673087109     0.1607546726    -0.9818292625
15
attempt 2 | |g_proj| = 1.719e-03 | E = -3010.3307192984 Ha
C     -0.4695416896     1.2251808446     0.7994724406
C      0.8772316468     1.2448659754     0.8042979453
C      1.5263985054     0.0045341019     0.7219918851
H     -1.0279014035     2.1422504160     0.8717371424
H      1.4559003726     2.1547553352     0.8552571278
N      2.9925435870     0.0359817118     0.7201017760
O      3.5089663756    -0.4547658893     1.6852865903
O      3.4858948196     0.5735115446    -0.2325833427
C     -0.4586793993    -1.2552669646     0.5820560911
H     -1.0033387591    -2.1848047288     0.4777831416
C      0.8961777194    -1.2374191555     0.6383061825
H      1.4815811619    -2.1380678066     0.5942916612
C     -1.2413087010    -0.0173904758     0.6680881672
H     -1.9849194081    -0.1082215441     1.4612914223
Br    -2.2730855668     0.1623771127    -0.9819385993
