15
attempt 1 | |g_proj| = 6.318e-03 | E = -3010.3219395478 Ha
C     -0.9083164486     2.0371883548     0.6911190000
C      0.4810660087     1.9452999712     0.7577880701
C      1.1523421890     0.7269402865     0.6419869785
C      0.4914876629    -0.4378150906     0.5140468578
C     -1.6277560619     0.8910378640     0.5731847598
H     -1.3993902752     2.9989947177     0.7163366129
H      1.0784616997     2.8345280317     0.8820345753
H      1.0248112358    -1.3748851738     0.4194124610
H     -2.7090263146     0.9127741290     0.5309066506
N      2.6295689826     0.7262675424     0.6475024253
O      3.1764006289    -0.1739946752     0.0730851133
O      3.1341730180     1.6259698839     1.2594802671
C     -0.9729998484    -0.4283533847     0.6138739827
H     -1.1438696106    -0.7512040766     1.6565531200
Br    -1.7987861319    -1.7311493830    -0.5058531686
15
attempt 2 | |g_proj| = 4.540e-03 | E = -3010.3219735483 Ha
C     -0.9118165630     2.0354606869     0.6904090325
C      0.4807719485     1.9454897629     0.7573793565
C      1.1525367009     0.7281426847     0.6424532140
C      0.4905700407    -0.4380384809     0.5114723398
C     -1.6278543985     0.8907316326     0.5711694303
H     -1.3988479461     2.9980179518     0.7163688227
H      1.0790330675     2.8351393655     0.8841469314
H      1.0254319581    -1.3755747953     0.4177801329
H     -2.7079189895     0.9139424466     0.5304283763
N      2.6337963201     0.7265945736     0.6477303211
O      3.1776171998    -0.1743153939     0.0693645317
O      3.1339279303     1.6262223280     1.2646641332
C     -0.9733478521    -0.4270871814     0.6130938716
H     -1.1435829832    -0.7481623362     1.6569540086
Br    -1.8021496980    -1.7349642428    -0.5019567921
