15
ortho_th36_ph270 | OPTIMIZED | |g_proj|=3.402e-03 | E=-3010.3460614905 Ha
C     -1.7867615390     1.9559032142     0.7140474088
C     -0.3685400891     1.9858132220     0.7165640629
C      0.3027288197     0.8246872900     0.6494074014
C     -2.5172927899     0.7780941276     0.6721997962
H     -2.3163057326     2.8988871631     0.7543817262
H      0.1697210616     2.9202506067     0.7786718062
H     -3.5975365268     0.7965367950     0.6627488868
N      1.7874668799     0.8490704574     0.7087001931
O      2.3440731231    -0.1533768898     0.3439356656
O      2.2887063934     1.8635762123     1.1120327619
C     -1.8370922076    -0.4089353013     0.7028783679
H     -2.3686073127    -1.3473819891     0.7685416587
C     -0.3718570182    -0.4822304051     0.6727345377
H      0.0376382403    -1.1070635424     1.4580930735
Br    -0.1198422574    -1.5893541462    -0.9252092931
