15
meta_th18_ph324 | OPTIMIZED | |g_proj|=1.476e-03 | E=-3010.3586752082 Ha
C     -0.9158715742     2.0319882434     0.7414329173
C      0.4833652707     1.9655096776     0.7653048274
C      1.1576161774     0.7444701404     0.6352052327
C      0.4906099096    -0.4216288224     0.4794874558
C     -1.6321288593     0.8815002038     0.6042563793
H     -1.4093111589     2.9901043528     0.8205017428
H      1.0798990479     2.8636354699     0.8872851870
H      1.0277930261    -1.3554218950     0.3638912423
H     -2.7150128791     0.8917283086     0.5855401921
N      2.6455775076     0.7365070263     0.6717229130
O      3.1724069637    -0.3273501880     0.4882940017
O      3.1733253250     1.7968841467     0.8818320271
C     -0.9723367640    -0.4290665106     0.5576759565
H     -1.1694960328    -0.8324248611     1.5657975912
Br    -1.8082692138    -1.7348362530    -0.5767699203
