15
meta_th72_ph342 | OPTIMIZED | |g_proj|=1.920e-03 | E=-3010.3337070372 Ha
C     -0.9173208099     2.0345679833     0.7350457520
C      0.4832139190     1.9712228243     0.6854468458
C      1.1460991480     0.7370720014     0.6663419172
C      0.4761504991    -0.4310693364     0.6825774128
C     -1.6258438364     0.8784474638     0.7364945640
H     -1.3997509207     2.9971245970     0.7670582120
H      1.0762318476     2.8796442665     0.6582778218
H      1.0120324398    -1.3684947873     0.6544779029
H     -2.7031833888     0.8897888396     0.7713254303
N      2.6248117813     0.7116699829     0.6285906765
O      3.1094431792    -0.3623094484     0.4050005845
O      3.1790783766     1.7625116915     0.8119744129
C     -0.9861954949    -0.4421055566     0.6944941874
H     -1.3635609301    -1.0703122479     1.5080763264
Br    -1.5030390641    -1.3861592348    -0.9337243006
