15
ortho_th45_ph108 | OPTIMIZED | |g_proj|=4.278e-03 | E=-3010.3293137981 Ha
C     -1.7814336795     1.9221902554     0.7274814279
C     -0.3730428209     1.9800497788     0.7280101809
C      0.2926690354     0.8127493655     0.7553676575
C     -2.5125646038     0.7328600768     0.7855590662
H     -2.3244097117     2.8561616646     0.6960335560
H      0.1565862843     2.9215652613     0.7184423629
H     -3.5914215640     0.7536468398     0.8361960231
N      1.7696517581     0.7857692135     0.7993597537
O      2.2360161228    -0.1027320289     1.4671581342
O      2.3417433763     1.6505196377     0.1958455935
C     -1.8403923697    -0.4474532368     0.7553163791
H     -2.3694305845    -1.3920428695     0.7349464110
C     -0.3721848532    -0.4905341485     0.6092202508
H      0.0946078065    -1.2540027263     1.2322052719
Br    -0.0798950932    -0.9442703386    -1.2514140863
