15
para_th63_ph108 | OPTIMIZED | |g_proj|=1.085e-03 | E=-3010.3383694283 Ha
C     -0.4751976719     1.2196557134     0.7861787022
C      0.8750156146     1.2417719044     0.7790355400
C      1.5327572198     0.0070391261     0.7124757443
H     -1.0383144341     2.1350655351     0.8612107665
H      1.4496518945     2.1533382266     0.8191266130
N      3.0006049664     0.0394350254     0.7261208626
O      3.5112901516    -0.5402714329     1.6447650330
O      3.5075160876     0.6602100584    -0.1670315811
C     -0.4542819119    -1.2559520253     0.5865742603
H     -0.9974928495    -2.1864771300     0.5071804954
C      0.8998202361    -1.2390956081     0.6438499853
H      1.4921166755    -2.1370212713     0.6227178798
C     -1.2436793583    -0.0232365438     0.6641274462
H     -1.9955182967    -0.1162011184     1.4512342479
Br    -2.2983690662     0.1892600183    -0.9721263686
