15
attempt 1 | |g_proj| = 5.283e-04 | E = -3010.3571730816 Ha
C     -0.4806697184     1.2412125108     0.5173363769
C      0.8756420373     1.2535890808     0.6467120739
C      1.5303742822     0.0241867586     0.7191680011
H     -1.0447642973     2.1647434000     0.4654971087
H      1.4494221931     2.1687032605     0.6834741710
N      3.0238183954     0.0485782297     0.8893465393
O      3.5519455113    -1.0185513602     1.0516728214
O      3.5393476353     1.1332624843     0.8496136463
C     -0.4418477002    -1.2530590296     0.5061907606
H     -0.9776211865    -2.1922955582     0.4429612368
C      0.9137023764    -1.2250417973     0.6437399390
H      1.5146032975    -2.1224870763     0.6855449726
C     -1.2280889919    -0.0178061503     0.5374987980
H     -1.6380949021    -0.0356298883     1.5625765831
Br    -2.8218496748    -0.0218843862    -0.5358934016
