15
para_th9_ph36 | OPTIMIZED | |g_proj|=1.279e-04 | E=-3010.3524837373 Ha
C     -0.4832431615     1.2416088867     0.5601990452
C      0.8741401633     1.2547125469     0.6593368724
C      1.5288007502     0.0239510029     0.7151392922
H     -1.0476649398     2.1652952529     0.5152151313
H      1.4486757962     2.1694889498     0.6906451067
N      3.0254395565     0.0488188293     0.8559748529
O      3.5599015587    -1.0204313543     0.9771904941
O      3.5365455527     1.1358151625     0.8275251060
C     -0.4448681114    -1.2542417267     0.5544986427
H     -0.9813385366    -2.1940069000     0.5060342741
C      0.9120032324    -1.2269002090     0.6587430637
H      1.5135466172    -2.1242004481     0.6955770418
C     -1.2334043672    -0.0178617684     0.5624543052
H     -1.7305479516    -0.0329860933     1.5475041093
Br    -2.7120669202    -0.0215416533    -0.6605977335
