15
attempt 1 | |g_proj| = 4.159e-03 | E = -3010.3462297914 Ha
C     -0.9283977133     2.0227830466     0.7666541895
C      0.4693559279     1.9582007074     0.6845534515
C      1.1492465666     0.7325043586     0.6611783079
C      0.4888744172    -0.4429747017     0.6754002139
C     -1.6373165566     0.8638281417     0.7700607341
H     -1.4201467708     2.9841348802     0.8184976054
H      1.0624342340     2.8654396662     0.6526396625
H      1.0291842130    -1.3814532345     0.6361545735
H     -2.7191936329     0.8744816001     0.8105821227
N      2.6359446125     0.7298552121     0.6290703393
O      3.1651372080    -0.3488131983     0.6263178558
O      3.1597261196     1.8108588291     0.5927183951
C     -0.9821218347    -0.4538873840     0.6627626331
H     -1.3548156841    -1.1039038209     1.4619675660
Br    -1.5097443926    -1.3094551841    -0.9771000206
15
attempt 2 | |g_proj| = 3.237e-03 | E = -3010.3462434089 Ha
C     -0.9282629118     2.0221411672     0.7678331302
C      0.4693706197     1.9568349309     0.6850859615
C      1.1496805172     0.7306610386     0.6626084190
C      0.4887009889    -0.4441429710     0.6726448188
C     -1.6373020333     0.8634482223     0.7691651601
H     -1.4203433409     2.9831287499     0.8180769929
H      1.0620755816     2.8645907449     0.6506089355
H      1.0295569549    -1.3823549390     0.6383558036
H     -2.7188951170     0.8734558209     0.8118757319
N      2.6362444662     0.7304490241     0.6298031131
O      3.1650042498    -0.3481907378     0.6328891660
O      3.1591955265     1.8122689380     0.5852519330
C     -0.9813038740    -0.4519798556     0.6680970810
H     -1.3553224153    -1.1064963811     1.4608645525
Br    -1.5102324974    -1.3022148291    -0.9817031649
15
attempt 3 | |g_proj| = 2.653e-03 | E = -3010.3462570954 Ha
C     -0.9281816816     2.0221001318     0.7675882440
C      0.4692461047     1.9568278991     0.6849683699
C      1.1495995764     0.7311544893     0.6622669643
C      0.4892163856    -0.4441788160     0.6749889642
C     -1.6371336433     0.8632433210     0.7714537604
H     -1.4203045829     2.9830870113     0.8178878323
H      1.0619945773     2.8639307140     0.6499320573
H      1.0294265022    -1.3830108902     0.6386230837
H     -2.7189934973     0.8730926391     0.8122178713
N      2.6360112704     0.7306190469     0.6294867440
O      3.1657502115    -0.3477122991     0.6363657743
O      3.1587636140     1.8119373820     0.5818158817
C     -0.9818450632    -0.4538555971     0.6654071420
H     -1.3556173816    -1.1077633265     1.4604987201
Br    -1.5097656760    -1.2978727776    -0.9820437708
15
attempt 4 | |g_proj| = 1.918e-03 | E = -3010.3462600261 Ha
C     -0.9283455885     2.0218601233     0.7679443960
C      0.4691308267     1.9566310487     0.6847493443
C      1.1495584925     0.7306172545     0.6625831229
C      0.4890173629    -0.4445318141     0.6748795868
C     -1.6371165007     0.8628707006     0.7715050511
H     -1.4203121058     2.9830058591     0.8178055934
H      1.0620935202     2.8639695241     0.6494998679
H      1.0294536827    -1.3830626403     0.6390537574
H     -2.7188697407     0.8729282674     0.8126559550
N      2.6361380149     0.7305382933     0.6295474756
O      3.1658005911    -0.3475710134     0.6380937930
O      3.1586503796     1.8122892818     0.5799305334
C     -0.9814786719    -0.4532318184     0.6670751049
H     -1.3556801973    -1.1082905805     1.4597378726
Br    -1.5098733485    -1.2964235534    -0.9836038111
