15
para_th72_ph126 | OPTIMIZED | |g_proj|=1.719e-03 | E=-3010.3307192984 Ha
C     -0.4695416896     1.2251808446     0.7994724406
C      0.8772316468     1.2448659754     0.8042979453
C      1.5263985054     0.0045341019     0.7219918851
H     -1.0279014035     2.1422504160     0.8717371424
H      1.4559003726     2.1547553352     0.8552571278
N      2.9925435870     0.0359817118     0.7201017760
O      3.5089663756    -0.4547658893     1.6852865903
O      3.4858948196     0.5735115446    -0.2325833427
C     -0.4586793993    -1.2552669646     0.5820560911
H     -1.0033387591    -2.1848047288     0.4777831416
C      0.8961777194    -1.2374191555     0.6383061825
H      1.4815811619    -2.1380678066     0.5942916612
C     -1.2413087010    -0.0173904758     0.6680881672
H     -1.9849194081    -0.1082215441     1.4612914223
Br    -2.2730855668     0.1623771127    -0.9819385993
