15
attempt 1 | |g_proj| = 2.200e-03 | E = -3010.3367153992 Ha
C     -1.7857422128     1.9559317450     0.7235449249
C     -0.3646917046     1.9936722173     0.6970622741
C      0.2845998455     0.8269027067     0.6607636175
C     -2.5109315743     0.7735843741     0.7373984217
H     -2.3122762136     2.8998466348     0.7495940310
H      0.1715721430     2.9307802482     0.7228846340
H     -3.5870060507     0.7940280788     0.7625063398
N      1.7675184623     0.8205304861     0.7533503418
O      2.2703228099    -0.2718900131     0.7412484905
O      2.3073386195     1.8897095304     0.8221254141
C     -1.8388317501    -0.4179256072     0.7088130315
H     -2.3680257947    -1.3620873658     0.7309722916
C     -0.3795059544    -0.4820726375     0.6475479044
H      0.0307089734    -1.1632720975     1.3859003585
Br    -0.0385505673    -1.4032614720    -1.0539840105
