15
attempt 1 | |g_proj| = 2.143e-04 | E = -3010.3605377262 Ha
C     -0.9164330289     2.0277025257     0.7555844855
C      0.4820712295     1.9604903401     0.7681259616
C      1.1592157576     0.7372521804     0.6570776065
C      0.4952157712    -0.4330206218     0.5288439637
C     -1.6300601774     0.8744484086     0.6382998168
H     -1.4097549085     2.9868350735     0.8265420705
H      1.0798827068     2.8614796663     0.8573976008
H      1.0336464930    -1.3691267949     0.4361354871
H     -2.7133810853     0.8853613188     0.6232206111
N      2.6478869395     0.7463432184     0.6514928589
O      3.1835462805    -0.3275773764     0.5997964491
O      3.1685785191     1.8295668078     0.7087536024
C     -0.9714247572    -0.4379222543     0.5837149351
H     -1.2090017212    -0.9253763837     1.5388632630
Br    -1.7918212879    -1.6148571310    -0.7023910243
