15
attempt 1 | |g_proj| = 7.034e-05 | E = -3010.3594479068 Ha
C     -0.9171238540     2.0260850150     0.7583778848
C      0.4815646634     1.9601351757     0.7547884041
C      1.1595488357     0.7355521040     0.6591489505
C      0.4958233289    -0.4362027390     0.5503233492
C     -1.6299563774     0.8709530763     0.6630508217
H     -1.4105846950     2.9853837116     0.8244171542
H      1.0794383918     2.8631779659     0.8206341671
H      1.0344999459    -1.3729464965     0.4669675861
H     -2.7133712402     0.8807147553     0.6592606886
N      2.6479609808     0.7468581919     0.6499746853
O      3.1852507397    -0.3273632932     0.6370921965
O      3.1669964665     1.8323928286     0.6657825575
C     -0.9718710563    -0.4417013328     0.5976718426
H     -1.2315140525    -0.9678577598     1.5247578659
Br    -1.7684953480    -1.5535822301    -0.7607904709
