15
ortho_th18_ph18 | OPTIMIZED | |g_proj|=1.136e-03 | E=-3010.3514431632 Ha
C     -1.7965760328     1.9517901470     0.7516915728
C     -0.3795626429     1.9932569504     0.7082683236
C      0.2822611407     0.8249534560     0.6639701859
C     -2.5234314083     0.7604889852     0.7658859272
H     -2.3315770755     2.8944108246     0.7943519170
H      0.1582840058     2.9309537155     0.7285322635
H     -3.6025146272     0.7830859618     0.8177091087
N      1.7694907091     0.8219254961     0.7336101067
O      2.2781549724    -0.2551093960     0.9122956840
O      2.3116922299     1.8860201561     0.6094884122
C     -1.8473918622    -0.4231007525     0.6902652335
H     -2.3750732534    -1.3690065641     0.6708356925
C     -0.3828092978    -0.4828140171     0.6125980546
H      0.0177464528    -1.1488947567     1.3765376612
Br     0.0678058241    -1.3834834982    -1.0463121977
