15
attempt 1 | |g_proj| = 3.379e-03 | E = -3010.3513953002 Ha
C     -1.7968277615     1.9529602074     0.7496432656
C     -0.3795007191     1.9922467130     0.7039545643
C      0.2826470460     0.8234470809     0.6598295495
C     -2.5236442413     0.7617658730     0.7645204890
H     -2.3321775553     2.8952532422     0.8035971469
H      0.1572984027     2.9304104643     0.7311954701
H     -3.6030779983     0.7844698709     0.8156200702
N      1.7706600958     0.8215435925     0.7312441039
O      2.2851770190    -0.2557118996     0.8909143103
O      2.3073458381     1.8907371522     0.6274714818
C     -1.8467387005    -0.4215538969     0.6905019959
H     -2.3745349810    -1.3668920402     0.6663334666
C     -0.3821385514    -0.4842931333     0.6076141245
H      0.0127350355    -1.1376537231     1.3854439622
Br     0.0692762140    -1.4022528046    -1.0381560644
15
attempt 2 | |g_proj| = 2.517e-03 | E = -3010.3514342107 Ha
C     -1.7963075760     1.9514296257     0.7541922723
C     -0.3794796420     1.9935723799     0.7091473113
C      0.2821196882     0.8254158390     0.6628385002
C     -2.5236996150     0.7603572759     0.7642649779
H     -2.3306163911     2.8941638566     0.7939119710
H      0.1590385037     2.9311326704     0.7280909152
H     -3.6028715354     0.7831624239     0.8182585056
N      1.7695346263     0.8230456814     0.7316568540
O      2.2765936974    -0.2545525185     0.9107403945
O      2.3130057520     1.8872411466     0.6116355884
C     -1.8477689505    -0.4234165439     0.6879316121
H     -2.3757755586    -1.3695297935     0.6710032482
C     -0.3825847312    -0.4833600998     0.6123828166
H      0.0177702526    -1.1496875861     1.3766826114
Br     0.0675406184    -1.3844976543    -1.0430096377
15
attempt 3 | |g_proj| = 1.136e-03 | E = -3010.3514431632 Ha
C     -1.7965760328     1.9517901470     0.7516915728
C     -0.3795626429     1.9932569504     0.7082683236
C      0.2822611407     0.8249534560     0.6639701859
C     -2.5234314083     0.7604889852     0.7658859272
H     -2.3315770755     2.8944108246     0.7943519170
H      0.1582840058     2.9309537155     0.7285322635
H     -3.6025146272     0.7830859618     0.8177091087
N      1.7694907091     0.8219254961     0.7336101067
O      2.2781549724    -0.2551093960     0.9122956840
O      2.3116922299     1.8860201561     0.6094884122
C     -1.8473918622    -0.4231007525     0.6902652335
H     -2.3750732534    -1.3690065641     0.6708356925
C     -0.3828092978    -0.4828140171     0.6125980546
H      0.0177464528    -1.1488947567     1.3765376612
Br     0.0678058241    -1.3834834982    -1.0463121977
