15
meta_th54_ph180 | OPTIMIZED | |g_proj|=1.554e-03 | E=-3010.3421314516 Ha
C     -0.9122225868     2.0316369247     0.7420816110
C      0.4852660413     1.9553017153     0.7546315903
C      1.1553957766     0.7259103169     0.6797750968
C      0.4915171967    -0.4471995411     0.6142808773
C     -1.6177579498     0.8758969563     0.6798014352
H     -1.3970109124     2.9963554778     0.7697231826
H      1.0820664346     2.8580523629     0.8071283464
H      1.0218055995    -1.3894794562     0.5585096057
H     -2.6962834477     0.8916590499     0.6675061379
N      2.6392224445     0.7368074323     0.6258793497
O      3.1655378162    -0.3397081350     0.5665302825
O      3.1562924903     1.8216648560     0.6663523343
C     -0.9742342251    -0.4448181649     0.6565555073
H     -1.2878158184    -1.0241409179     1.5286601098
Br    -1.7036121324    -1.4463399081    -0.8459577880
