15
ortho_th9_ph90 | OPTIMIZED | |g_proj|=1.982e-03 | E=-3010.3500161805 Ha
C     -1.7946910765     1.9495707327     0.7449903114
C     -0.3781377401     1.9907789617     0.7149373197
C      0.2860399629     0.8226511588     0.6768786362
C     -2.5233391895     0.7590145731     0.7578320554
H     -2.3310120363     2.8918072094     0.7774928359
H      0.1598898334     2.9285287857     0.7419102419
H     -3.6032472428     0.7817805999     0.8009320682
N      1.7744986722     0.8234511640     0.7315981183
O      2.2902134171    -0.2513988169     0.9044661820
O      2.3114581320     1.8914278925     0.6148542653
C     -1.8467759871    -0.4242649838     0.7016903344
H     -2.3753859071    -1.3697124783     0.6813466827
C     -0.3800140659    -0.4860386674     0.6139973855
H      0.0278153700    -1.1514963523     1.3779164003
Br     0.0291869730    -1.3716230484    -1.0511148689
