15
meta_th72_ph216 | OPTIMIZED | |g_proj|=3.733e-03 | E=-3010.3241450176 Ha
C     -0.9150559018     2.0396636805     0.6962982057
C      0.4784424392     1.9478137884     0.7571242097
C      1.1488047971     0.7290735815     0.6426184646
C      0.4924403351    -0.4416093475     0.5135953057
C     -1.6242383714     0.8909619551     0.5771040641
H     -1.3968804985     3.0064301386     0.7149778225
H      1.0807496453     2.8360687570     0.8782838384
H      1.0251801953    -1.3825079808     0.4228970308
H     -2.7031967064     0.9112645517     0.5316958403
N      2.6295000966     0.7277111704     0.6461055560
O      3.1684622382    -0.1817976444     0.0767682978
O      3.1320871765     1.6323271134     1.2543372279
C     -0.9711150691    -0.4293032086     0.6179616791
H     -1.1443288796    -0.7571347569     1.6598712512
Br    -1.7926847634    -1.7273628055    -0.5181810925
