15
attempt 1 | |g_proj| = 6.953e-04 | E = -3010.3387058189 Ha
C     -0.9062146805     2.0374711821     0.7044337618
C      0.4926370774     1.9726607864     0.7211468607
C      1.1561137656     0.7382223670     0.6515354689
C      0.4796926459    -0.4235903343     0.5887366756
C     -1.6232738081     0.8846595276     0.6419472572
H     -1.3896411611     2.9984918701     0.7367397109
H      1.0897521645     2.8767653919     0.7865866944
H      1.0069911837    -1.3620928744     0.5168221752
H     -2.7027817563     0.9009842871     0.6320813170
N      2.6342068551     0.7244970259     0.6501474553
O      3.1383260124    -0.2558017359     0.1773886077
O      3.1743264544     1.6963101951     1.1113300966
C     -0.9820127595    -0.4338419900     0.6486960019
H     -1.2766220357    -0.9083978991     1.5974612001
Br    -1.6833332136    -1.6447387655    -0.6935955418
