15
attempt 1 | |g_proj| = 2.969e-03 | E = -3010.3246389429 Ha
C     -1.7623889754     1.9496750794     0.6512563590
C     -0.3514673376     1.9778709618     0.6701985892
C      0.3033684533     0.8077572022     0.6527472357
C     -2.5093568979     0.7795224364     0.6842593632
H     -2.2832484046     2.8941248129     0.6210617728
H      0.1852655644     2.9158916582     0.6922157925
H     -3.5868085288     0.8073503528     0.6710925612
N      1.7800334595     0.8421756898     0.7028015655
O      2.3467864466     0.2233860563    -0.1563548944
O      2.2496366565     1.5177594340     1.5797863610
C     -1.8526033591    -0.4108050708     0.7590388186
H     -2.3953744881    -1.3425380796     0.8519755430
C     -0.3857835017    -0.4953511665     0.7145844580
H     -0.0092384916    -1.0726667666     1.5548244925
Br    -0.0823215196    -1.6096758227    -0.8597600033
