15
attempt 1 | |g_proj| = 1.978e-04 | E = -3010.3435520404 Ha
C     -0.9027285673     2.0345732690     0.6846536300
C      0.4924933543     1.9628849372     0.7514405589
C      1.1590651303     0.7362320698     0.6283748948
C      0.4840259883    -0.4200126356     0.4667080210
C     -1.6252164626     0.8870251125     0.5622773374
H     -1.3877016044     2.9944748740     0.7336322644
H      1.0891538187     2.8570674426     0.8967078178
H      1.0128206685    -1.3534164257     0.3403327355
H     -2.7066414574     0.9040068238     0.5402488939
N      2.6372381467     0.7275422562     0.6843927019
O      3.1755795509    -0.1981366932     0.1434100109
O      3.1467061792     1.6495752380     1.2673508317
C     -0.9754694880    -0.4271372539     0.5821034903
H     -1.1506024212    -0.7428783757     1.6275729360
Br    -1.8405560907    -1.8102016019    -0.4377483783
