15
attempt 1 | |g_proj| = 3.879e-04 | E = -3010.3534862311 Ha
C     -0.4819530908     1.2376693759     0.5581749186
C      0.8747940905     1.2517266681     0.6618037999
C      1.5308507658     0.0222411177     0.7171418762
H     -1.0479938576     2.1603788938     0.5233788808
H      1.4491884117     2.1660633886     0.6928189395
N      3.0234680047     0.0505428155     0.8714469672
O      3.5395289392    -0.9915546302     1.1740239566
O      3.5502660926     1.1127483381     0.6762225051
C     -0.4409790238    -1.2555056865     0.5162253775
H     -0.9768602453    -2.1937468025     0.4476073896
C      0.9143246856    -1.2287267489     0.6429054132
H      1.5163824594    -2.1253488615     0.6816053455
C     -1.2303573769    -0.0210961111     0.5548498320
H     -1.6935397753    -0.0629676376     1.5555784520
Br    -2.7612008303     0.0250963584    -0.6083440357
