15
attempt 1 | |g_proj| = 1.288e-04 | E = -3010.3541492410 Ha
C     -1.7949197721     1.9553675262     0.7563887101
C     -0.3776121155     1.9924839553     0.7201446883
C      0.2871123987     0.8257891781     0.6492261078
C     -2.5241857634     0.7669486356     0.7407376027
H     -2.3279104731     2.8983483247     0.8121647070
H      0.1616439750     2.9291311642     0.7632253205
H     -3.6043665309     0.7886242560     0.7763114030
N      1.7765400632     0.8355644474     0.7116536338
O      2.3043970745    -0.2452720976     0.7636124624
O      2.3033221309     1.9151568829     0.7126897372
C     -1.8473307464    -0.4175491226     0.6767549841
H     -2.3764130037    -1.3629835939     0.6623266791
C     -0.3814244721    -0.4825325802     0.6164415364
H      0.0090515725    -1.1167468366     1.4114442352
Br     0.0385947270    -1.4978533480    -0.9833937795
