15
ortho_th63_ph288 | OPTIMIZED | |g_proj|=3.577e-03 | E=-3010.3260988131 Ha
C     -1.7640544725     1.9484296330     0.6489973194
C     -0.3552669710     1.9792530724     0.6714300798
C      0.3070770530     0.8109184184     0.6594525168
C     -2.5131636714     0.7775875266     0.6817276387
H     -2.2873308233     2.8909411757     0.6158270701
H      0.1812739053     2.9160762813     0.6953111986
H     -3.5922256206     0.8054350796     0.6675858881
N      1.7837356604     0.8412357375     0.7015899655
O      2.3480238177     0.2203248630    -0.1574228221
O      2.2604128131     1.5092306413     1.5802297633
C     -1.8525764166    -0.4082345839     0.7628184800
H     -2.3946702705    -1.3401711330     0.8535242765
C     -0.3837727050    -0.4916993159     0.7159086064
H     -0.0034511218    -1.0700767932     1.5531054583
Br    -0.0875120971    -1.6047738299    -0.8603574293
