15
para_th36_ph72 | OPTIMIZED | |g_proj|=1.429e-03 | E=-3010.3433631951 Ha
C     -0.4884738754     1.2267094725     0.7100669977
C      0.8682683028     1.2434762706     0.7192457867
C      1.5270685824     0.0147980692     0.7096050403
H     -1.0583383636     2.1462924968     0.7286013692
H      1.4405267798     2.1568943381     0.7368780441
N      3.0129645530     0.0504083827     0.7692404024
O      3.5326167538    -0.8741021650     1.3334293150
O      3.5312186925     1.0008240494     0.2481157007
C     -0.4467706509    -1.2611233787     0.6061041047
H     -0.9839924615    -2.1972510747     0.5589243375
C      0.9081136817    -1.2397633216     0.6614633764
H      1.5129090316    -2.1340563294     0.6777147483
C     -1.2447537226    -0.0273545197     0.6331362526
H     -1.9389091930    -0.0958033061     1.4800702151
Br    -2.4065288606     0.1375714935    -0.9071560722
