15
para_th81_ph162 | OPTIMIZED | |g_proj|=1.833e-03 | E=-3010.3182500417 Ha
C     -0.4853922843     1.2430867724     0.7651035846
C      0.8674757733     1.2589093223     0.7671156227
C      1.5047503431     0.0219664696     0.7243723665
H     -1.0422409803     2.1671483271     0.7892577303
H      1.4402555800     2.1740470374     0.7719557104
N      2.9931181550     0.0289348505     0.6847822515
O      3.5124343899    -0.9621269746     1.1180066587
O      3.5035819288     1.0174208206     0.2312829354
C     -0.4680774307    -1.2552425916     0.6842674537
H     -1.0017121525    -2.1965767789     0.6410719868
C      0.8872030172    -1.2233486460     0.7138213380
H      1.4798318913    -2.1217646985     0.7146278624
C     -1.2480919195    -0.0117646666     0.6832629696
H     -2.0369841103    -0.0502651095     1.4300483952
Br    -2.1402329325     0.0570963439    -1.0535372251
