15
attempt 1 | |g_proj| = 4.633e-04 | E = -3010.3531090520 Ha
C     -1.7936344660     1.9536193462     0.7413916605
C     -0.3759552913     1.9902638276     0.7216103385
C      0.2905789107     0.8242391750     0.6608607833
C     -2.5218031443     0.7651553715     0.7278759113
H     -2.3272005657     2.8970028304     0.7809306618
H      0.1627976843     2.9268898212     0.7678117967
H     -3.6020956090     0.7857996659     0.7513329851
N      1.7802244796     0.8399720101     0.7155901083
O      2.3167693197    -0.2380856329     0.7105783436
O      2.2989427281     1.9220017516     0.7749311738
C     -1.8429825906    -0.4189936097     0.6962242786
H     -2.3718946303    -1.3643029761     0.7014968168
C     -0.3765046083    -0.4853363097     0.6283599440
H      0.0325065448    -1.1289676223     1.4068239436
Br    -0.0232496774    -1.4847808808    -0.9960907408
