15
para_th81_ph306 | OPTIMIZED | |g_proj|=1.228e-03 | E=-3010.3262069973 Ha
C     -0.4697941368     1.2257661048     0.9572381524
C      0.8777007238     1.2259626412     0.9814572377
C      1.5129050556    -0.0021166864     0.7322270310
H     -1.0184653855     2.1404829939     1.1060987777
H      1.4696886855     2.1096692959     1.1689825260
N      2.9803417147     0.0146603367     0.6344349181
O      3.5606588397     0.4350665143     1.5968896949
O      3.4121983815    -0.3712136768    -0.4171832921
C     -0.4844890763    -1.2378365712     0.5864729102
H     -1.0415924159    -2.1573078488     0.4570966263
C      0.8724187491    -1.2245345906     0.5544333413
H      1.4477503486    -2.1171726918     0.3874046120
C     -1.2523375571     0.0087223666     0.6855935242
H     -2.1089065880    -0.0828860820     1.3538393572
Br    -1.9921580224     0.1802583733    -1.1195457169
