15
attempt 1 | |g_proj| = 3.882e-03 | E = -3010.3420522117 Ha
C     -0.9085897978     2.0286112641     0.7420540248
C      0.4886120531     1.9501445182     0.7591061392
C      1.1554352856     0.7207192455     0.6856124486
C      0.4869293009    -0.4488533583     0.6160673018
C     -1.6195821710     0.8759111503     0.6796438148
H     -1.3868068034     2.9959907647     0.7649668166
H      1.0929233897     2.8489471279     0.7985557829
H      1.0088003434    -1.3931662453     0.5530912690
H     -2.6987210030     0.8937439498     0.6805677138
N      2.6376233464     0.7418302293     0.6271531467
O      3.1741810369    -0.3292216959     0.5672939393
O      3.1434526443     1.8326931266     0.6624926536
C     -0.9781058070    -0.4453838378     0.6585227725
H     -1.3004864087    -1.0254600716     1.5272192012
Br    -1.6874986834    -1.4449072033    -0.8508893506
15
attempt 2 | |g_proj| = 1.554e-03 | E = -3010.3421314516 Ha
C     -0.9122225868     2.0316369247     0.7420816110
C      0.4852660413     1.9553017153     0.7546315903
C      1.1553957766     0.7259103169     0.6797750968
C      0.4915171967    -0.4471995411     0.6142808773
C     -1.6177579498     0.8758969563     0.6798014352
H     -1.3970109124     2.9963554778     0.7697231826
H      1.0820664346     2.8580523629     0.8071283464
H      1.0218055995    -1.3894794562     0.5585096057
H     -2.6962834477     0.8916590499     0.6675061379
N      2.6392224445     0.7368074323     0.6258793497
O      3.1655378162    -0.3397081350     0.5665302825
O      3.1562924903     1.8216648560     0.6663523343
C     -0.9742342251    -0.4448181649     0.6565555073
H     -1.2878158184    -1.0241409179     1.5286601098
Br    -1.7036121324    -1.4463399081    -0.8459577880
