15
attempt 1 | |g_proj| = 1.202e-03 | E = -3010.3323453716 Ha
C     -1.7816719509     1.9421294970     0.6842075687
C     -0.3595457089     1.9819971785     0.7067057336
C      0.2953937712     0.8171557550     0.7106470992
C     -2.5014282076     0.7556700341     0.7192189936
H     -2.3141033680     2.8853884893     0.6544755405
H      0.1711303763     2.9210614053     0.7416392322
H     -3.5771084238     0.7748193206     0.7341045510
N      1.7785187604     0.8262180703     0.7792822618
O      2.2977346520    -0.2563070684     0.8679280721
O      2.2990973177     1.9069061264     0.7818567817
C     -1.8225706860    -0.4293623917     0.7717175104
H     -2.3455498428    -1.3751267469     0.8285489324
C     -0.3626605757    -0.4938125139     0.6511346492
H      0.1096061214    -1.2236640555     1.3084075260
Br    -0.2403431645    -1.2485963181    -1.1501464336
