15
attempt 1 | |g_proj| = 6.021e-03 | E = -3010.3411270139 Ha
C     -1.7966632234     1.9460580355     0.7527470803
C     -0.3824354623     1.9898894036     0.7098811166
C      0.2794678974     0.8202469846     0.6980126273
C     -2.5230851648     0.7528183602     0.7832821732
H     -2.3364492377     2.8862841851     0.7843839891
H      0.1523346068     2.9273456358     0.7150911730
H     -3.6013748296     0.7785913571     0.8424378226
N      1.7619052552     0.8007999864     0.7516764473
O      2.2544009624    -0.2310202072     1.1311600386
O      2.3174315875     1.8094251655     0.4154308242
C     -1.8461137690    -0.4255303376     0.7047286732
H     -2.3717584025    -1.3690121379     0.6698019428
C     -0.3811170488    -0.4868554092     0.6039400276
H      0.0269089874    -1.1831494067     1.3427770212
Br     0.0930469564    -1.2314148838    -1.1156229880
15
attempt 2 | |g_proj| = 5.352e-03 | E = -3010.3411822663 Ha
C     -1.7971483061     1.9452381572     0.7521151765
C     -0.3812947394     1.9884758105     0.7111876179
C      0.2793928294     0.8194937819     0.6968377734
C     -2.5231650121     0.7526183620     0.7846152881
H     -2.3366102829     2.8856660433     0.7818044083
H      0.1521083638     2.9265973683     0.7149192543
H     -3.6013085659     0.7782820170     0.8425523663
N      1.7632568999     0.8009466521     0.7545066865
O      2.2549352476    -0.2303758861     1.1383807811
O      2.3175916531     1.8070462100     0.4091846493
C     -1.8455705501    -0.4263284371     0.7033190838
H     -2.3723528971    -1.3696888259     0.6714968457
C     -0.3824081164    -0.4845797183     0.6104877303
H      0.0280321629    -1.1838055513     1.3405350993
Br     0.0910404243    -1.2251092478    -1.1222147871
15
attempt 3 | |g_proj| = 4.145e-03 | E = -3010.3411838123 Ha
C     -1.7968260690     1.9452175767     0.7521200223
C     -0.3817530530     1.9886558791     0.7110758783
C      0.2798195853     0.8196677655     0.6974707523
C     -2.5231395380     0.7523981183     0.7844880210
H     -2.3366051866     2.8855664109     0.7814876852
H      0.1521100551     2.9265068543     0.7148948884
H     -3.6013387892     0.7781992142     0.8425402284
N      1.7631057081     0.8004682362     0.7544591619
O      2.2549323366    -0.2298346687     1.1393776737
O      2.3177753763     1.8065978573     0.4085136067
C     -1.8459711875    -0.4261722756     0.7037753783
H     -2.3722718796    -1.3697479360     0.6716119499
C     -0.3821944464    -0.4849545739     0.6092869156
H      0.0284242719    -1.1843094454     1.3406907489
Br     0.0904319232    -1.2237822724    -1.1220649325
15
attempt 4 | |g_proj| = 4.145e-03 | E = -3010.3411838223 Ha
C     -1.7968260698     1.9452175776     0.7521200227
C     -0.3817530532     1.9886558800     0.7110758786
C      0.2798195854     0.8196677659     0.6974707526
C     -2.5231395392     0.7523981187     0.7844880214
H     -2.3366051877     2.8855664123     0.7814876856
H      0.1521100552     2.9265068557     0.7148948887
H     -3.6013387909     0.7781992146     0.8425402288
N      1.7631057089     0.8004682366     0.7544591623
O      2.2549323377    -0.2298346688     1.1393776742
O      2.3177753774     1.8065978582     0.4085136069
C     -1.8459711884    -0.4261722758     0.7037753786
H     -2.3722718807    -1.3697479366     0.6716119502
C     -0.3821944466    -0.4849545741     0.6092869159
H      0.0284242719    -1.1843094460     1.3406907495
Br     0.0904319232    -1.2237822730    -1.1220649330
15
attempt 5 | |g_proj| = 4.145e-03 | E = -3010.3411838212 Ha
C     -1.7968260706     1.9452175785     0.7521200231
C     -0.3817530534     1.9886558809     0.7110758789
C      0.2798195855     0.8196677663     0.6974707529
C     -2.5231395404     0.7523981191     0.7844880218
H     -2.3366051888     2.8855664137     0.7814876860
H      0.1521100553     2.9265068571     0.7148948890
H     -3.6013387926     0.7781992150     0.8425402292
N      1.7631057097     0.8004682370     0.7544591627
O      2.2549323388    -0.2298346689     1.1393776747
O      2.3177753785     1.8065978591     0.4085136071
C     -1.8459711893    -0.4261722760     0.7037753789
H     -2.3722718818    -1.3697479372     0.6716119505
C     -0.3821944468    -0.4849545743     0.6092869162
H      0.0284242719    -1.1843094466     1.3406907501
Br     0.0904319232    -1.2237822736    -1.1220649335
15
attempt 6 | |g_proj| = 4.145e-03 | E = -3010.3411838137 Ha
C     -1.7968260714     1.9452175794     0.7521200235
C     -0.3817530536     1.9886558818     0.7110758792
C      0.2798195856     0.8196677667     0.6974707532
C     -2.5231395416     0.7523981195     0.7844880222
H     -2.3366051899     2.8855664151     0.7814876864
H      0.1521100554     2.9265068585     0.7148948893
H     -3.6013387943     0.7781992154     0.8425402296
N      1.7631057105     0.8004682374     0.7544591631
O      2.2549323399    -0.2298346690     1.1393776752
O      2.3177753796     1.8065978600     0.4085136073
C     -1.8459711902    -0.4261722762     0.7037753792
H     -2.3722718829    -1.3697479378     0.6716119508
C     -0.3821944470    -0.4849545745     0.6092869165
H      0.0284242719    -1.1843094472     1.3406907507
Br     0.0904319232    -1.2237822742    -1.1220649340
15
attempt 1 | |g_proj| = 6.012e-03 | E = -3010.3411264542 Ha
C     -1.7966632788     1.9460638839     0.7527542003
C     -0.3824359301     1.9898945344     0.7098829888
C      0.2794654412     0.8202518691     0.6979962121
C     -2.5230817851     0.7528214208     0.7832829894
H     -2.3364485499     2.8862914786     0.7843931781
H      0.1523346732     2.9273511211     0.7150923109
H     -3.6013703000     0.7785937442     0.8424366933
N      1.7619012883     0.8008060380     0.7516720739
O      2.2543913817    -0.2310303822     1.1311213265
O      2.3174285048     1.8094404789     0.4154587477
C     -1.8461147894    -0.4255294718     0.7047144393
H     -2.3717555263    -1.3690159897     0.6697978535
C     -0.3811206199    -0.4868506441     0.6039500262
H      0.0269055303    -1.1831524416     1.3427790262
Br     0.0930630752    -1.2314589083    -1.1156040971
15
attempt 2 | |g_proj| = 5.350e-03 | E = -3010.3411823676 Ha
C     -1.7971507394     1.9452409101     0.7521186170
C     -0.3812932910     1.9884789697     0.7111856455
C      0.2793894703     0.8194952662     0.6968312785
C     -2.5231653030     0.7526219261     0.7846133125
H     -2.3366110163     2.8856690146     0.7818132666
H      0.1521109197     2.9265996359     0.7149205007
H     -3.6013080356     0.7782848162     0.8425533724
N      1.7632532929     0.8009490069     0.7544988429
O      2.2549305766    -0.2303822045     1.1383466440
O      2.3175898416     1.8070608118     0.4092119332
C     -1.8455694614    -0.4263275315     0.7033177163
H     -2.3723541287    -1.3696861222     0.6714924217
C     -0.3824066362    -0.4845830610     0.6104815756
H      0.0280260673    -1.1838014034     1.3405393458
Br     0.0910575546    -1.2251432990    -1.1221964989
15
attempt 3 | |g_proj| = 4.144e-03 | E = -3010.3411841331 Ha
C     -1.7968268993     1.9452205818     0.7521230932
C     -0.3817533987     1.9886583171     0.7110742182
C      0.2798170909     0.8196688947     0.6974635925
C     -2.5231391551     0.7524004944     0.7844866127
H     -2.3366060148     2.8855695512     0.7814963908
H      0.1521125513     2.9265090437     0.7148963591
H     -3.6013384577     0.7782023257     0.8425414010
N      1.7631023249     0.8004717868     0.7544515414
O      2.2549284910    -0.2298416416     1.1393438166
O      2.3177729570     1.8066121323     0.4085408364
C     -1.8459705613    -0.4261708447     0.7037731114
H     -2.3722731826    -1.3697452267     0.6716076266
C     -0.3821942404    -0.4849565699     0.6092816528
H      0.0284183975    -1.1843052432     1.3406954546
Br     0.0904492047    -1.2238168611    -1.1220477287
