15
para_th72_ph72 | OPTIMIZED | |g_proj|=7.194e-04 | E=-3010.3331223095 Ha
C     -0.4913074441     1.2214008687     0.8476909532
C      0.8632273727     1.2376922141     0.8385169128
C      1.5270438184     0.0151698651     0.7252349511
H     -1.0591959171     2.1365199879     0.9317631028
H      1.4293775451     2.1484824208     0.9110073070
N      2.9900302046     0.0374711863     0.6827119661
O      3.5374020566    -0.4025982176     1.6549357574
O      3.4530699087     0.4801785733    -0.3317127285
C     -0.4502468497    -1.2509149779     0.6223826084
H     -0.9901056771    -2.1797356804     0.5505639434
C      0.8983752035    -1.2396229532     0.6427729389
H      1.4984135830    -2.1344569238     0.5973147469
C     -1.2500402624    -0.0203660188     0.6722481787
H     -2.0692665607    -0.1024491315     1.3892626368
Br    -2.1208577355     0.2007492646    -1.0692536619
