15
attempt 1 | |g_proj| = 1.086e-03 | E = -3010.3376248649 Ha
C     -0.5036415991     1.2456038695     0.7403786079
C      0.8545148640     1.2579504595     0.7182700099
C      1.5065906321     0.0245744887     0.7050002242
H     -1.0668368699     2.1709891865     0.7448107007
H      1.4290261794     2.1724893752     0.7188826058
N      3.0084441461     0.0460667324     0.6996166450
O      3.5469857915    -1.0276882861     0.6948792057
O      3.5166051634     1.1344299799     0.6881933883
C     -0.4676518098    -1.2538589057     0.7503200424
H     -1.0038330391    -2.1951889155     0.7617910766
C      0.8903163594    -1.2268765677     0.7281716250
H      1.4908678910    -2.1244413866     0.7362002823
C     -1.2614300472    -0.0156576827     0.6675417794
H     -2.0841940017    -0.0245805862     1.3874428433
Br    -2.0898444284    -0.0362912838    -1.0760594413
