15
attempt 1 | |g_proj| = 3.962e-03 | E = -3010.3495630584 Ha
C     -0.9239792018     2.0187763158     0.7686586428
C      0.4731835313     1.9531816797     0.7020506139
C      1.1557896123     0.7283272452     0.6659534027
C      0.4944287165    -0.4465618797     0.6444165178
C     -1.6355392359     0.8612609049     0.7552364972
H     -1.4179234804     2.9781604791     0.8201740837
H      1.0684212613     2.8595288438     0.6844283749
H      1.0338297439    -1.3845342077     0.5919479616
H     -2.7189101253     0.8686188382     0.7846596259
N      2.6413682393     0.7386930507     0.6379926937
O      3.1826182314    -0.3305528605     0.7170162791
O      3.1568530665     1.8204308413     0.5345265704
C     -0.9778946829    -0.4549523855     0.6472746815
H     -1.3223272743    -1.0941406523     1.4709984816
Br    -1.6017516819    -1.3146372710    -0.9538767751
15
attempt 2 | |g_proj| = 3.332e-03 | E = -3010.3495741083 Ha
C     -0.9249725512     2.0180262646     0.7693212858
C      0.4724343890     1.9536675756     0.7011397941
C      1.1541966727     0.7278975056     0.6656092400
C      0.4934155298    -0.4476435086     0.6451121105
C     -1.6348928008     0.8588867319     0.7578302509
H     -1.4179389815     2.9786676622     0.8201905656
H      1.0684264071     2.8597052488     0.6828596506
H      1.0344494820    -1.3855374069     0.5940027414
H     -2.7179052997     0.8686716881     0.7865842449
N      2.6426388170     0.7390883060     0.6394983632
O      3.1828151498    -0.3308202851     0.7218818866
O      3.1569841525     1.8206826651     0.5280242095
C     -0.9781243321    -0.4546331300     0.6502292873
H     -1.3228871454    -1.0951168713     1.4668229848
Br    -1.6004727681    -1.3099434994    -0.9576489591
15
attempt 3 | |g_proj| = 3.200e-03 | E = -3010.3495856970 Ha
C     -0.9244465121     2.0185790109     0.7698107801
C      0.4725800319     1.9530062320     0.7007697078
C      1.1553435841     0.7279770920     0.6659345046
C      0.4947158841    -0.4473963405     0.6462382214
C     -1.6350845878     0.8603266545     0.7589565262
H     -1.4182963455     2.9780471432     0.8202942732
H      1.0678128147     2.8592783979     0.6813332162
H      1.0342625410    -1.3856657775     0.5957442169
H     -2.7182939906     0.8680339396     0.7887006655
N      2.6414210788     0.7389048303     0.6382346459
O      3.1828702276    -0.3296286709     0.7265081812
O      3.1566868247     1.8195565572     0.5237767109
C     -0.9777594133    -0.4554101455     0.6482026524
H     -1.3246475442    -1.0986655225     1.4665885743
Br    -1.5989978710    -1.3053444494    -0.9596352160
15
attempt 4 | |g_proj| = 1.974e-03 | E = -3010.3495907300 Ha
C     -0.9245749503     2.0182317800     0.7699189045
C      0.4725714503     1.9531894156     0.7006231518
C      1.1548784020     0.7278271731     0.6658816424
C      0.4941685929    -0.4476465046     0.6463885363
C     -1.6349104723     0.8594361616     0.7591962276
H     -1.4183227945     2.9782793287     0.8203900480
H      1.0678566153     2.8593470277     0.6808768012
H      1.0344411644    -1.3858137919     0.5962072929
H     -2.7181543270     0.8680391706     0.7892605897
N      2.6419991746     0.7389664870     0.6385402353
O      3.1828290632    -0.3299251929     0.7276330001
O      3.1566041397     1.8198859448     0.5223078507
C     -0.9779422601    -0.4552057196     0.6497174947
H     -1.3245722946    -1.0986601784     1.4652840352
Br    -1.5987047801    -1.3043521457    -0.9607681453
