15
meta_th18_ph54 | OPTIMIZED | |g_proj|=1.974e-03 | E=-3010.3495907300 Ha
C     -0.9245749503     2.0182317800     0.7699189045
C      0.4725714503     1.9531894156     0.7006231518
C      1.1548784020     0.7278271731     0.6658816424
C      0.4941685929    -0.4476465046     0.6463885363
C     -1.6349104723     0.8594361616     0.7591962276
H     -1.4183227945     2.9782793287     0.8203900480
H      1.0678566153     2.8593470277     0.6808768012
H      1.0344411644    -1.3858137919     0.5962072929
H     -2.7181543270     0.8680391706     0.7892605897
N      2.6419991746     0.7389664870     0.6385402353
O      3.1828290632    -0.3299251929     0.7276330001
O      3.1566041397     1.8198859448     0.5223078507
C     -0.9779422601    -0.4552057196     0.6497174947
H     -1.3245722946    -1.0986601784     1.4652840352
Br    -1.5987047801    -1.3043521457    -0.9607681453
