15
para_th72_ph234 | OPTIMIZED | |g_proj|=4.101e-04 | E=-3010.3294014389 Ha
C     -0.4623618220     1.2530902467     0.4719518551
C      0.8911952405     1.2518883379     0.5669442421
C      1.5349910194     0.0222845025     0.7057898668
H     -1.0148269879     2.1747788248     0.3428727632
H      1.4677353462     2.1581465822     0.5250675028
N      3.0012873617     0.0205958360     0.8168130693
O      3.5841103342    -0.6326431278    -0.0034993893
O      3.4280647569     0.6511361624     1.7445689646
C     -0.4474075189    -1.2229273033     0.7189312292
H     -0.9964658531    -2.1471052295     0.7742460963
C      0.8998502041    -1.2256720275     0.7640311373
H      1.4894392334    -2.1278309049     0.8263538840
C     -1.2331553379     0.0140535812     0.6214359100
H     -1.8038488849     0.1237393743     1.5540775574
Br    -2.5726877940    -0.1660143774    -0.7641450120
