15
para_th63_ph324 | OPTIMIZED | |g_proj|=1.479e-03 | E=-3010.3223847847 Ha
C     -0.4770196107     1.2748907211     0.6886548022
C      0.8733529282     1.2730128954     0.6982212761
C      1.4965629474     0.0200872752     0.7329928843
H     -1.0227861796     2.2032655517     0.6277465602
H      1.4675435843     2.1753248044     0.6805830066
N      2.9738164595    -0.0008974730     0.6434414248
O      3.4244505620    -0.8734288778    -0.0484306150
O      3.5451565225     0.8640768896     1.2494156708
C     -0.4986828025    -1.2148191672     0.8873360558
H     -1.0541979351    -2.1413479016     0.9734726027
C      0.8590481796    -1.2087174555     0.8465654172
H      1.4370713401    -2.1155222536     0.8868885390
C     -1.2579272551     0.0248311045     0.6771571714
H     -2.1520662314     0.0861192906     1.2955473925
Br    -1.8484031592    -0.2193549235    -1.1741524469
