15
para_th9_ph306 | OPTIMIZED | |g_proj|=1.051e-03 | E=-3010.3537044585 Ha
C     -0.4776735022     1.2441287417     0.4917286999
C      0.8782475700     1.2560443985     0.6262506252
C      1.5299189753     0.0254615204     0.7154868453
H     -1.0399841382     2.1668378622     0.4177796787
H      1.4529645923     2.1709194365     0.6620278422
N      3.0220772110     0.0441702876     0.8983757478
O      3.5676474858    -1.0258606775     0.8661843013
O      3.5194314926     1.1267912707     1.0543518722
C     -0.4451894971    -1.2498688017     0.5255811222
H     -0.9823001351    -2.1894485905     0.4770017793
C      0.9112529795    -1.2224082686     0.6512641381
H      1.5109151949    -2.1204468468     0.6960558843
C     -1.2283683542    -0.0129509884     0.5331040521
H     -1.6225889387     0.0048223492     1.5675121812
Br    -2.8304316415    -0.0706712142    -0.5172650969
