15
para_th72_ph162 | OPTIMIZED | |g_proj|=1.641e-03 | E=-3010.3229435863 Ha
C     -0.4752235723     1.2431553451     0.7047745362
C      0.8755506665     1.2552221953     0.7663887250
C      1.5137747471     0.0173903983     0.7455926767
H     -1.0272900243     2.1703287425     0.7110047222
H      1.4483430747     2.1699992445     0.7829751978
N      3.0010477705     0.0298911523     0.7299554557
O      3.5234083856    -0.9305243336     1.2255750083
O      3.5060543029     0.9996542225     0.2326440951
C     -0.4592461738    -1.2534214027     0.6160887465
H     -0.9918214843    -2.1931640417     0.5460482164
C      0.8935945832    -1.2269972776     0.7091266503
H      1.4824497623    -2.1282994501     0.7177857141
C     -1.2401093115    -0.0105842946     0.6366191324
H     -1.9231145775    -0.0539421116     1.4864193243
Br    -2.3614988697     0.0588120892    -0.9455585470
