15
attempt 1 | |g_proj| = 4.920e-04 | E = -3010.3426904975 Ha
C     -1.7874572099     1.9498766879     0.6939324449
C     -0.3663653146     1.9861531208     0.7115241179
C      0.2977091890     0.8215577132     0.6915249454
C     -2.5093303715     0.7618570777     0.7018197570
H     -2.3219851427     2.8937320407     0.6870149414
H      0.1666927838     2.9240700211     0.7585505032
H     -3.5876750717     0.7806882824     0.7063163086
N      1.7833242098     0.8357461540     0.7499610051
O      2.3195497560    -0.2390552713     0.6615471064
O      2.2953275438     1.9093896207     0.9119376300
C     -1.8261933625    -0.4201403278     0.7512286719
H     -2.3504255360    -1.3645188379     0.8068673897
C     -0.3632723718    -0.4888251671     0.6584149811
H      0.0929020603    -1.1807953370     1.3660026903
Br    -0.1963020977    -1.3852589858    -1.0669144628
