15
attempt 1 | |g_proj| = 3.079e-03 | E = -3010.3284814996 Ha
C     -1.7742168106     1.9185143335     0.7091318365
C     -0.3636088098     1.9731380237     0.7214926037
C      0.2995016198     0.8075530253     0.7441112522
C     -2.5036043572     0.7328077303     0.7774406335
H     -2.3123106223     2.8543323543     0.6621495151
H      0.1702242561     2.9124847084     0.7332864155
H     -3.5824087373     0.7538994805     0.8071810186
N      1.7750365132     0.8042841360     0.8164796877
O      2.2473893712    -0.1071971665     1.4479444616
O      2.3411520824     1.7156582198     0.2791259049
C     -1.8303656553    -0.4506552911     0.7782356009
H     -2.3588884698    -1.3953899211     0.7629316889
C     -0.3655900559    -0.4979447914     0.6106977434
H      0.1265190171    -1.2658525657     1.2071168812
Br    -0.2223302426    -0.9711555265    -1.2675972566
