15
attempt 1 | |g_proj| = 4.898e-03 | E = -3010.3383248608 Ha
C     -1.7703469121     1.9553441601     0.7146699020
C     -0.3564384505     1.9801091572     0.7051993976
C      0.2974833249     0.8109139957     0.6383964625
C     -2.5150105355     0.7837596595     0.6875680978
H     -2.2858171874     2.9030699602     0.7520691085
H      0.1900337674     2.9120355153     0.7629321362
H     -3.5933399865     0.8155786289     0.6837772493
N      1.7826941192     0.8550721089     0.6858121205
O      2.3639864451    -0.0437360685     0.1406953746
O      2.2524103336     1.7998963399     1.2620301324
C     -1.8544550979    -0.4101537007     0.6873882192
H     -2.4011570366    -1.3425506491     0.7435781450
C     -0.3887304307    -0.4952798937     0.6632797081
H     -0.0464845902    -1.0699430385     1.5191909496
Br    -0.0283287033    -1.6696393791    -0.8568589700
15
attempt 2 | |g_proj| = 2.125e-03 | E = -3010.3383537548 Ha
C     -1.7703991898     1.9565342929     0.7145782062
C     -0.3566492830     1.9786673079     0.7063532338
C      0.2990561692     0.8099954984     0.6348082157
C     -2.5157638863     0.7846855492     0.6866418684
H     -2.2876820990     2.9043853136     0.7532379753
H      0.1888987647     2.9104946721     0.7622650065
H     -3.5942104936     0.8155657642     0.6848851844
N      1.7836842035     0.8539618592     0.6890735726
O      2.3636350262    -0.0439340795     0.1408850101
O      2.2541676425     1.8010966716     1.2608307330
C     -1.8556021271    -0.4091774362     0.6884462818
H     -2.4005804854    -1.3431383907     0.7413217770
C     -0.3892878691    -0.4946822166     0.6633245014
H     -0.0450465211    -1.0694687510     1.5187474316
Br    -0.0277207961    -1.6705092542    -0.8556709598
