15
ortho_th45_ph306 | OPTIMIZED | |g_proj|=2.125e-03 | E=-3010.3383537548 Ha
C     -1.7703991898     1.9565342929     0.7145782062
C     -0.3566492830     1.9786673079     0.7063532338
C      0.2990561692     0.8099954984     0.6348082157
C     -2.5157638863     0.7846855492     0.6866418684
H     -2.2876820990     2.9043853136     0.7532379753
H      0.1888987647     2.9104946721     0.7622650065
H     -3.5942104936     0.8155657642     0.6848851844
N      1.7836842035     0.8539618592     0.6890735726
O      2.3636350262    -0.0439340795     0.1408850101
O      2.2541676425     1.8010966716     1.2608307330
C     -1.8556021271    -0.4091774362     0.6884462818
H     -2.4005804854    -1.3431383907     0.7413217770
C     -0.3892878691    -0.4946822166     0.6633245014
H     -0.0450465211    -1.0694687510     1.5187474316
Br    -0.0277207961    -1.6705092542    -0.8556709598
