15
para_th63_ph72 | OPTIMIZED | |g_proj|=6.498e-04 | E=-3010.3344760289 Ha
C     -0.4929432549     1.2190903406     0.8330084023
C      0.8618297779     1.2365530903     0.8094451626
C      1.5238245757     0.0123956139     0.7221485040
H     -1.0608464370     2.1351924234     0.9070348310
H      1.4287311100     2.1491571422     0.8555298584
N      2.9917470190     0.0420559912     0.6849919483
O      3.5404567724    -0.5615967093     1.5650957195
O      3.4609799408     0.6593998043    -0.2313689299
C     -0.4524893677    -1.2569473916     0.6396164550
H     -0.9912456384    -2.1879466695     0.5808335602
C      0.8972962364    -1.2437347893     0.6658115565
H      1.4986570860    -2.1387749421     0.6451505658
C     -1.2513705501    -0.0247437136     0.6712406768
H     -2.0730903373    -0.1043436409     1.3861578198
Br    -2.1156176865     0.2117639281    -1.0692565172
