15
ortho_th45_ph90 | OPTIMIZED | |g_proj|=2.202e-03 | E=-3010.3313393643 Ha
C     -1.7860191820     1.9255174486     0.7298816894
C     -0.3765786818     1.9781825633     0.7279808995
C      0.2916380968     0.8115581101     0.7540647530
C     -2.5158810981     0.7341808283     0.7906879603
H     -2.3294798641     2.8614569675     0.7017093626
H      0.1520621359     2.9183628723     0.7163053229
H     -3.5952244069     0.7581918428     0.8359142044
N      1.7673716352     0.7856940576     0.8014576590
O      2.2368008860    -0.1080791318     1.4599262115
O      2.3391943905     1.6454915831     0.1907511056
C     -1.8381745774    -0.4420636324     0.7549475966
H     -2.3626357369    -1.3862664087     0.7311868102
C     -0.3726206450    -0.4896314846     0.6121411955
H      0.0923765399    -1.2561484350     1.2314260095
Br    -0.0563303854    -0.9519704410    -1.2486528021
