15
ortho_th72_ph126 | OPTIMIZED | |g_proj|=1.412e-03 | E=-3010.3177533234 Ha
C     -1.7643198382     1.9115701256     0.7535710111
C     -0.3594086764     1.9704331208     0.7380606963
C      0.3030686678     0.8046880319     0.7177196389
C     -2.4955452915     0.7259952335     0.7871635165
H     -2.3010798132     2.8461062288     0.7565730566
H      0.1723922606     2.9102013404     0.7651418927
H     -3.5723864797     0.7432679455     0.8336217746
N      1.7693694813     0.8058693878     0.8204364628
O      2.1825382744     0.1781697838     1.7617748922
O      2.3758383388     1.4511285465     0.0126109600
C     -1.8302033043    -0.4568394644     0.7393790719
H     -2.3645051847    -1.3984613709     0.7164306085
C     -0.3662898543    -0.4970598162     0.5741745303
H      0.1197800319    -1.2805308982     1.1469924817
Br    -0.2227495093    -0.9300614503    -1.3339226113
