15
attempt 1 | |g_proj| = 1.209e-03 | E = -3010.3350905556 Ha
C     -0.4641237381     1.2555001476     0.5183793725
C      0.8897011731     1.2564775438     0.5704971388
C      1.5381823968     0.0253350164     0.7126506617
H     -1.0186002323     2.1756661801     0.4022957527
H      1.4674074568     2.1601496190     0.4986483509
N      3.0012509016     0.0132421751     0.7651305570
O      3.5399892927    -0.4524877824    -0.1998605823
O      3.4728069656     0.4478608418     1.7789492668
C     -0.4563435642    -1.2107707392     0.7981765628
H     -1.0079139010    -2.1309755456     0.8815906963
C      0.8917746015    -1.2155717442     0.8192851796
H      1.4777855765    -2.1154384510     0.9099655341
C     -1.2411524606     0.0191956549     0.6499754517
H     -1.9460544756     0.1290305756     1.4804138113
Br    -2.3787906916    -0.2096930142    -0.9206580725
