15
para_th54_ph54 | OPTIMIZED | |g_proj|=9.338e-04 | E=-3010.3308368635 Ha
C     -0.5051840265     1.2220905919     0.8467259560
C      0.8515476670     1.2352096934     0.8043531624
C      1.5075477454     0.0108040777     0.7285139303
H     -1.0734143430     2.1409964063     0.9107606068
H      1.4184069818     2.1495175386     0.8228169638
N      2.9842531004     0.0468721463     0.6482699819
O      3.5630758761    -0.7710958644     1.3095656374
O      3.4309194122     0.8842595160    -0.0884864368
C     -0.4606021717    -1.2643054808     0.7048133731
H     -0.9974510827    -2.1989941838     0.6707693004
C      0.8905368119    -1.2481105705     0.7206295285
H      1.4948102438    -2.1431103930     0.7276720444
C     -1.2570947323    -0.0263485342     0.6735457780
H     -2.1302566023    -0.0893103417     1.3242839236
Br    -1.9511756377     0.1990458762    -1.1387941408
